Ir36 H18 O78                            
   1.00000000000000     
     9.5325385040720789    0.0000000000000000    0.0000000000000006
     0.0000000000000010    6.4022918038617691    0.0000000000000004
     0.0000000000000000    0.0000000000000000   56.6148967251015165
   H    Ir   O 
    18    36    78
Selective dynamics
Direct
  0.0058270051662399  0.5013070171668239  0.4771312612709915   T   T   T
  0.9941729948337601  0.4986929828331754  0.1222172729309665   T   T   T
  0.3391603384995685  0.5013070171668239  0.4771312612709915   T   T   T
  0.6608396615004315  0.4986929828331754  0.1222172729309665   T   T   T
  0.6724936718329042  0.5013070171668239  0.4771312612709915   T   T   T
  0.3275063281670958  0.4986929828331754  0.1222172729309665   T   T   T
 -0.0001451106589333  0.8747748628537337  0.1248080408336087   T   T   T
  0.0001451106589333  0.1252251371462665  0.4745404933683496   T   T   T
  0.6665215560077311  0.8747748628537337  0.1248080408336087   T   T   T
  0.3334784439922689  0.1252251371462665  0.4745404933683496   T   T   T
  0.3331882226744025  0.8747748628537337  0.1248080408336087   T   T   T
  0.6668117773255975  0.1252251371462665  0.4745404933683496   T   T   T
  0.8978244008601228  0.3067318006860661  0.1155948885329610   T   T   T
  0.1021755991398769  0.6932681993139336  0.4837536456689972   T   T   T
  0.5644910675267942  0.3067318006860661  0.1155948885329610   T   T   T
  0.4355089324732057  0.6932681993139336  0.4837536456689972   T   T   T
  0.2311577341934588  0.3067318006860661  0.1155948885329610   T   T   T
  0.7688422658065415  0.6932681993139336  0.4837536456689972   T   T   T
  0.1658917558038315  0.7651531338302113  0.1585372837587304   T   T   T
  0.4992250891371671  0.7651531338302113  0.1585372837587304   T   T   T
  0.8325584224705024  0.7651531338302113  0.1585372837587304   T   T   T
  0.9988805681509975  0.2676217860367840  0.1586028887092680   T   T   T
  0.3322139014843327  0.2676217860367840  0.1586028887092680   T   T   T
  0.6655472348176618  0.2676217860367840  0.1586028887092680   T   T   T
  0.1666673905228460  0.2512286379011078  0.2146685564945623   T   T   T
  0.5000007238561821  0.2512286379011078  0.2146685564945623   T   T   T
  0.8333340571895178  0.2512286379011078  0.2146685564945623   T   T   T
 -0.0001897121273636  0.7527666506393482  0.2149123977482942   T   T   T
  0.3331436212059717  0.7527666506393482  0.2149123977482942   T   T   T
  0.6664769545393007  0.7527666506393482  0.2149123977482942   T   T   T
  0.1666666666666643  0.7500000000000000  0.2714038392382250   F   F   F
  0.5000000000000000  0.7500000000000000  0.2714038392382250   F   F   F
  0.8333333333333357  0.7500000000000000  0.2714038392382250   F   F   F
  0.0000000000000000  0.2500000000000000  0.2714038392382250   F   F   F
  0.3333333333333357  0.2500000000000000  0.2714038392382250   F   F   F
  0.6666666666666643  0.2500000000000000  0.2714038392382250   F   F   F
  0.1666666666666643  0.2500000000000000  0.3279463057461882   F   F   F
  0.5000000000000000  0.2500000000000000  0.3279463057461882   F   F   F
  0.8333333333333357  0.2500000000000000  0.3279463057461882   F   F   F
  0.0000000000000000  0.7500000000000000  0.3279463057461882   F   F   F
  0.3333333333333357  0.7500000000000000  0.3279463057461882   F   F   F
  0.6666666666666643  0.7500000000000000  0.3279463057461882   F   F   F
  0.1666659428104826  0.7487713620988926  0.3846815884898512   T   T   T
  0.4999992761438183  0.7487713620988926  0.3846815884898512   T   T   T
  0.8333326094771536  0.7487713620988926  0.3846815884898512   T   T   T
  0.0001897121273639  0.2472333493606515  0.3844377472361188   T   T   T
  0.3335230454606997  0.2472333493606515  0.3844377472361188   T   T   T
  0.6668563787940279  0.2472333493606515  0.3844377472361188   T   T   T
  0.1674415775294971  0.2348468661697883  0.4408128612256825   T   T   T
  0.5007749108628333  0.2348468661697883  0.4408128612256825   T   T   T
  0.8341082441961690  0.2348468661697883  0.4408128612256825   T   T   T
  0.0011194318490030  0.7323782139632152  0.4407472562751455   T   T   T
  0.3344527651823387  0.7323782139632152  0.4407472562751455   T   T   T
  0.6677860985156668  0.7323782139632152  0.4407472562751455   T   T   T
  0.9992935926920282  0.7444531844981347  0.1337640279165495   T   T   T
  0.3326269260253634  0.7444531844981347  0.1337640279165495   T   T   T
  0.6659602593586925  0.7444531844981347  0.1337640279165424   T   T   T
  0.1656941272631741  0.0744021418663244  0.1544259770343230   T   T   T
  0.4990274605965095  0.0744021418663244  0.1544259770343230   T   T   T
  0.8323607939298459  0.0744021418663244  0.1544259770343230   T   T   T
  0.9993625824444230  0.7726342439009253  0.1799983590551993   T   T   T
  0.3326959157777585  0.7726342439009253  0.1799983590551993   T   T   T
  0.6660292491110873  0.7726342439009253  0.1799983590551993   T   T   T
  0.1656501945149373  0.4576882406131335  0.1591028960669743   T   T   T
  0.4989835278482729  0.4576882406131335  0.1591028960669743   T   T   T
  0.8323168611816087  0.4576882406131335  0.1591028960669743   T   T   T
  0.0000387164665885  0.2407835086027999  0.1929403367098971   T   T   T
  0.3333720497999242  0.2407835086027999  0.1929403367098971   T   T   T
  0.6667053831332532  0.2407835086027999  0.1929403367098971   T   T   T
  0.1665286903994961  0.5602686283172438  0.2142625617870524   T   T   T
  0.4998620237328320  0.5602686283172438  0.2142625617870524   T   T   T
  0.8331953570661679  0.5602686283172438  0.2142625617870524   T   T   T
 -0.0000154759301155  0.2539638339059306  0.2364317817562457   T   T   T
  0.3333178574032199  0.2539638339059306  0.2364317817562457   T   T   T
  0.6666511907365490  0.2539638339059306  0.2364317817562457   T   T   T
  0.1665249502592804  0.9436849543986019  0.2153366977517604   T   T   T
  0.4998582835926160  0.9436849543986019  0.2153366977517604   T   T   T
  0.8331916169259516  0.9436849543986019  0.2153366977517604   T   T   T
  0.0000000000000000  0.7500000000000000  0.2497247611577791   F   F   F
  0.3333333333333357  0.7500000000000000  0.2497247611577791   F   F   F
  0.6666666666666643  0.7500000000000000  0.2497247611577791   F   F   F
  0.1666666666666643  0.0582938416084460  0.2714038392382250   F   F   F
  0.5000000000000000  0.0582938416084460  0.2714038392382250   F   F   F
  0.8333333333333357  0.0582938416084460  0.2714038392382250   F   F   F
  0.0000000000000000  0.7500000000000000  0.2930829173186780   F   F   F
  0.3333333333333357  0.7500000000000000  0.2930829173186780   F   F   F
  0.6666666666666643  0.7500000000000000  0.2930829173186780   F   F   F
  0.1666666666666643  0.4417061583915540  0.2714038392382250   F   F   F
  0.5000000000000000  0.4417061583915540  0.2714038392382250   F   F   F
  0.8333333333333357  0.4417061583915540  0.2714038392382250   F   F   F
  0.0000000000000000  0.2500000000000000  0.3062672276657423   F   F   F
  0.3333333333333357  0.2500000000000000  0.3062672276657423   F   F   F
  0.6666666666666643  0.2500000000000000  0.3062672276657423   F   F   F
  0.1666666666666643  0.5582938416084460  0.3279463057461882   F   F   F
  0.5000000000000000  0.5582938416084460  0.3279463057461882   F   F   F
  0.8333333333333357  0.5582938416084460  0.3279463057461882   F   F   F
  0.0000000000000000  0.2500000000000000  0.3496253838266412   F   F   F
  0.3333333333333357  0.2500000000000000  0.3496253838266412   F   F   F
  0.6666666666666643  0.2500000000000000  0.3496253838266412   F   F   F
  0.1666666666666643  0.9417061583915540  0.3279463057461882   F   F   F
  0.5000000000000000  0.9417061583915540  0.3279463057461882   F   F   F
  0.8333333333333357  0.9417061583915540  0.3279463057461882   F   F   F
  0.0000154759301155  0.7460361660940691  0.3629183632281744   T   T   T
  0.3333488092634515  0.7460361660940691  0.3629183632281744   T   T   T
  0.6666821425967796  0.7460361660940691  0.3629183632281744   T   T   T
  0.1668083830740482  0.0563150456013975  0.3840134472326529   T   T   T
  0.5001417164073841  0.0563150456013975  0.3840134472326529   T   T   T
  0.8334750497407198  0.0563150456013975  0.3840134472326529   T   T   T
  0.9999612835334111  0.7592164913972008  0.4064098082745231   T   T   T
  0.3332946168667472  0.7592164913972008  0.4064098082745231   T   T   T
  0.6666279502000754  0.7592164913972008  0.4064098082745231   T   T   T
  0.1668046429338325  0.4397313716827558  0.3850875831973610   T   T   T
  0.5001379762671680  0.4397313716827558  0.3850875831973610   T   T   T
  0.8334713096005035  0.4397313716827558  0.3850875831973610   T   T   T
  0.0006374175555774  0.2273657560990752  0.4193517859292213   T   T   T
  0.3339707508889129  0.2273657560990752  0.4193517859292213   T   T   T
  0.6673040842222413  0.2273657560990752  0.4193517859292213   T   T   T
  0.1676831388183913  0.5423117593868666  0.4402472489174386   T   T   T
  0.5010164721517270  0.5423117593868666  0.4402472489174386   T   T   T
  0.8343498054850627  0.5423117593868666  0.4402472489174386   T   T   T
  0.0007064073079721  0.2555468155018589  0.4655861170678708   T   T   T
  0.3340397406413080  0.2555468155018589  0.4655861170678708   T   T   T
  0.6673730739746361  0.2555468155018589  0.4655861170678708   T   T   T
  0.1676392060701545  0.9255978581336749  0.4449241679500904   T   T   T
  0.5009725394034898  0.9255978581336749  0.4449241679500904   T   T   T
  0.8343058727368255  0.9255978581336749  0.4449241679500904   T   T   T
  0.9946312958026390  0.3413995097887988  0.1200241552535160   T   T   T
  0.0053687041973608  0.6586004902112009  0.4793243789484420   T   T   T
  0.3279646291359750  0.3413995097887988  0.1200241552535160   T   T   T
  0.6720353708640253  0.6586004902112009  0.4793243789484420   T   T   T
  0.6612979624693033  0.3413995097887988  0.1200241552535160   T   T   T
  0.3387020375306964  0.6586004902112009  0.4793243789484420   T   T   T
 
  0.00000000E+00  0.00000000E+00  0.00000000E+00
  0.00000000E+00  0.00000000E+00  0.00000000E+00
  0.00000000E+00  0.00000000E+00  0.00000000E+00
  0.00000000E+00  0.00000000E+00  0.00000000E+00
  0.00000000E+00  0.00000000E+00  0.00000000E+00
  0.00000000E+00  0.00000000E+00  0.00000000E+00
  0.00000000E+00  0.00000000E+00  0.00000000E+00
  0.00000000E+00  0.00000000E+00  0.00000000E+00
  0.00000000E+00  0.00000000E+00  0.00000000E+00
  0.00000000E+00  0.00000000E+00  0.00000000E+00
  0.00000000E+00  0.00000000E+00  0.00000000E+00
  0.00000000E+00  0.00000000E+00  0.00000000E+00
  0.00000000E+00  0.00000000E+00  0.00000000E+00
  0.00000000E+00  0.00000000E+00  0.00000000E+00
  0.00000000E+00  0.00000000E+00  0.00000000E+00
  0.00000000E+00  0.00000000E+00  0.00000000E+00
  0.00000000E+00  0.00000000E+00  0.00000000E+00
  0.00000000E+00  0.00000000E+00  0.00000000E+00
  0.00000000E+00  0.00000000E+00  0.00000000E+00
  0.00000000E+00  0.00000000E+00  0.00000000E+00
  0.00000000E+00  0.00000000E+00  0.00000000E+00
  0.00000000E+00  0.00000000E+00  0.00000000E+00
  0.00000000E+00  0.00000000E+00  0.00000000E+00
  0.00000000E+00  0.00000000E+00  0.00000000E+00
  0.00000000E+00  0.00000000E+00  0.00000000E+00
  0.00000000E+00  0.00000000E+00  0.00000000E+00
  0.00000000E+00  0.00000000E+00  0.00000000E+00
  0.00000000E+00  0.00000000E+00  0.00000000E+00
  0.00000000E+00  0.00000000E+00  0.00000000E+00
  0.00000000E+00  0.00000000E+00  0.00000000E+00
  0.00000000E+00  0.00000000E+00  0.00000000E+00
  0.00000000E+00  0.00000000E+00  0.00000000E+00
  0.00000000E+00  0.00000000E+00  0.00000000E+00
  0.00000000E+00  0.00000000E+00  0.00000000E+00
  0.00000000E+00  0.00000000E+00  0.00000000E+00
  0.00000000E+00  0.00000000E+00  0.00000000E+00
  0.00000000E+00  0.00000000E+00  0.00000000E+00
  0.00000000E+00  0.00000000E+00  0.00000000E+00
  0.00000000E+00  0.00000000E+00  0.00000000E+00
  0.00000000E+00  0.00000000E+00  0.00000000E+00
  0.00000000E+00  0.00000000E+00  0.00000000E+00
  0.00000000E+00  0.00000000E+00  0.00000000E+00
  0.00000000E+00  0.00000000E+00  0.00000000E+00
  0.00000000E+00  0.00000000E+00  0.00000000E+00
  0.00000000E+00  0.00000000E+00  0.00000000E+00
  0.00000000E+00  0.00000000E+00  0.00000000E+00
  0.00000000E+00  0.00000000E+00  0.00000000E+00
  0.00000000E+00  0.00000000E+00  0.00000000E+00
  0.00000000E+00  0.00000000E+00  0.00000000E+00
  0.00000000E+00  0.00000000E+00  0.00000000E+00
  0.00000000E+00  0.00000000E+00  0.00000000E+00
  0.00000000E+00  0.00000000E+00  0.00000000E+00
  0.00000000E+00  0.00000000E+00  0.00000000E+00
  0.00000000E+00  0.00000000E+00  0.00000000E+00
  0.00000000E+00  0.00000000E+00  0.00000000E+00
  0.00000000E+00  0.00000000E+00  0.00000000E+00
  0.00000000E+00  0.00000000E+00  0.00000000E+00
  0.00000000E+00  0.00000000E+00  0.00000000E+00
  0.00000000E+00  0.00000000E+00  0.00000000E+00
  0.00000000E+00  0.00000000E+00  0.00000000E+00
  0.00000000E+00  0.00000000E+00  0.00000000E+00
  0.00000000E+00  0.00000000E+00  0.00000000E+00
  0.00000000E+00  0.00000000E+00  0.00000000E+00
  0.00000000E+00  0.00000000E+00  0.00000000E+00
  0.00000000E+00  0.00000000E+00  0.00000000E+00
  0.00000000E+00  0.00000000E+00  0.00000000E+00
  0.00000000E+00  0.00000000E+00  0.00000000E+00
  0.00000000E+00  0.00000000E+00  0.00000000E+00
  0.00000000E+00  0.00000000E+00  0.00000000E+00
  0.00000000E+00  0.00000000E+00  0.00000000E+00
  0.00000000E+00  0.00000000E+00  0.00000000E+00
  0.00000000E+00  0.00000000E+00  0.00000000E+00
  0.00000000E+00  0.00000000E+00  0.00000000E+00
  0.00000000E+00  0.00000000E+00  0.00000000E+00
  0.00000000E+00  0.00000000E+00  0.00000000E+00
  0.00000000E+00  0.00000000E+00  0.00000000E+00
  0.00000000E+00  0.00000000E+00  0.00000000E+00
  0.00000000E+00  0.00000000E+00  0.00000000E+00
  0.00000000E+00  0.00000000E+00  0.00000000E+00
  0.00000000E+00  0.00000000E+00  0.00000000E+00
  0.00000000E+00  0.00000000E+00  0.00000000E+00
  0.00000000E+00  0.00000000E+00  0.00000000E+00
  0.00000000E+00  0.00000000E+00  0.00000000E+00
  0.00000000E+00  0.00000000E+00  0.00000000E+00
  0.00000000E+00  0.00000000E+00  0.00000000E+00
  0.00000000E+00  0.00000000E+00  0.00000000E+00
  0.00000000E+00  0.00000000E+00  0.00000000E+00
  0.00000000E+00  0.00000000E+00  0.00000000E+00
  0.00000000E+00  0.00000000E+00  0.00000000E+00
  0.00000000E+00  0.00000000E+00  0.00000000E+00
  0.00000000E+00  0.00000000E+00  0.00000000E+00
  0.00000000E+00  0.00000000E+00  0.00000000E+00
  0.00000000E+00  0.00000000E+00  0.00000000E+00
  0.00000000E+00  0.00000000E+00  0.00000000E+00
  0.00000000E+00  0.00000000E+00  0.00000000E+00
  0.00000000E+00  0.00000000E+00  0.00000000E+00
  0.00000000E+00  0.00000000E+00  0.00000000E+00
  0.00000000E+00  0.00000000E+00  0.00000000E+00
  0.00000000E+00  0.00000000E+00  0.00000000E+00
  0.00000000E+00  0.00000000E+00  0.00000000E+00
  0.00000000E+00  0.00000000E+00  0.00000000E+00
  0.00000000E+00  0.00000000E+00  0.00000000E+00
  0.00000000E+00  0.00000000E+00  0.00000000E+00
  0.00000000E+00  0.00000000E+00  0.00000000E+00
  0.00000000E+00  0.00000000E+00  0.00000000E+00
  0.00000000E+00  0.00000000E+00  0.00000000E+00
  0.00000000E+00  0.00000000E+00  0.00000000E+00
  0.00000000E+00  0.00000000E+00  0.00000000E+00
  0.00000000E+00  0.00000000E+00  0.00000000E+00
  0.00000000E+00  0.00000000E+00  0.00000000E+00
  0.00000000E+00  0.00000000E+00  0.00000000E+00
  0.00000000E+00  0.00000000E+00  0.00000000E+00
  0.00000000E+00  0.00000000E+00  0.00000000E+00
  0.00000000E+00  0.00000000E+00  0.00000000E+00
  0.00000000E+00  0.00000000E+00  0.00000000E+00
  0.00000000E+00  0.00000000E+00  0.00000000E+00
  0.00000000E+00  0.00000000E+00  0.00000000E+00
  0.00000000E+00  0.00000000E+00  0.00000000E+00
  0.00000000E+00  0.00000000E+00  0.00000000E+00
  0.00000000E+00  0.00000000E+00  0.00000000E+00
  0.00000000E+00  0.00000000E+00  0.00000000E+00
  0.00000000E+00  0.00000000E+00  0.00000000E+00
  0.00000000E+00  0.00000000E+00  0.00000000E+00
  0.00000000E+00  0.00000000E+00  0.00000000E+00
  0.00000000E+00  0.00000000E+00  0.00000000E+00
  0.00000000E+00  0.00000000E+00  0.00000000E+00
  0.00000000E+00  0.00000000E+00  0.00000000E+00
  0.00000000E+00  0.00000000E+00  0.00000000E+00
  0.00000000E+00  0.00000000E+00  0.00000000E+00
  0.00000000E+00  0.00000000E+00  0.00000000E+00
  0.00000000E+00  0.00000000E+00  0.00000000E+00
  0.00000000E+00  0.00000000E+00  0.00000000E+00
