Ir36 H18 O78                            
   1.00000000000000     
     9.5325385040720789    0.0000000000000000    0.0000000000000006
     0.0000000000000010    6.4022918038617691    0.0000000000000004
     0.0000000000000000    0.0000000000000000   56.6148967251015165
   H    Ir   O 
    18    36    78
Selective dynamics
Direct
  0.0041893241875189  0.5231302331672149  0.4770444731653840   T   T   T
 -0.0041893241875190  0.4768697668327850  0.1223040610365745   T   T   T
  0.3375226575208476  0.5231302331672149  0.4770444731653840   T   T   T
  0.6624773424791528  0.4768697668327850  0.1223040610365745   T   T   T
  0.6708559908541829  0.5231302331672149  0.4770444731653840   T   T   T
  0.3291440091458167  0.4768697668327850  0.1223040610365745   T   T   T
  0.0001190715311673  0.8543972599774099  0.1248736202359929   T   T   T
 -0.0001190715311673  0.1456027400225898  0.4744749139659653   T   T   T
  0.6667857381978319  0.8543972599774099  0.1248736202359929   T   T   T
  0.3332142618021686  0.1456027400225898  0.4744749139659653   T   T   T
  0.3334524048645028  0.8543972599774099  0.1248736202359929   T   T   T
  0.6665475951354967  0.1456027400225898  0.4744749139659653   T   T   T
  0.8989406709850907  0.2865614263120752  0.1154951901540919   T   T   T
  0.1010593290149092  0.7134385736879244  0.4838533440478662   T   T   T
  0.5656073376517621  0.2865614263120752  0.1154951901540919   T   T   T
  0.4343926623482381  0.7134385736879244  0.4838533440478662   T   T   T
  0.2322740043184265  0.2865614263120752  0.1154951901540919   T   T   T
  0.7677259956815736  0.7134385736879244  0.4838533440478662   T   T   T
  0.1660689971785057  0.7456577877172793  0.1586059214272152   T   T   T
  0.4994023305118410  0.7456577877172793  0.1586059214272152   T   T   T
  0.8327356638451765  0.7456577877172793  0.1586059214272152   T   T   T
 -0.0008332717709344  0.2482613974576185  0.1586826652497667   T   T   T
  0.3325000615624011  0.2482613974576185  0.1586826652497667   T   T   T
  0.6658333948957300  0.2482613974576185  0.1586826652497667   T   T   T
  0.1667746442236502  0.2407669521219951  0.2147546907396614   T   T   T
  0.5001079775569860  0.2407669521219951  0.2147546907396614   T   T   T
  0.8334413108903217  0.2407669521219951  0.2147546907396614   T   T   T
 -0.0001159394621489  0.7424869091752148  0.2149751825954965   T   T   T
  0.3332173938711869  0.7424869091752148  0.2149751825954965   T   T   T
  0.6665507272045159  0.7424869091752148  0.2149751825954965   T   T   T
  0.1666666666666643  0.7500000000000000  0.2714038392382250   F   F   F
  0.5000000000000000  0.7500000000000000  0.2714038392382250   F   F   F
  0.8333333333333357  0.7500000000000000  0.2714038392382250   F   F   F
  0.0000000000000000  0.2500000000000000  0.2714038392382250   F   F   F
  0.3333333333333357  0.2500000000000000  0.2714038392382250   F   F   F
  0.6666666666666643  0.2500000000000000  0.2714038392382250   F   F   F
  0.1666666666666643  0.2500000000000000  0.3279463057461882   F   F   F
  0.5000000000000000  0.2500000000000000  0.3279463057461882   F   F   F
  0.8333333333333357  0.2500000000000000  0.3279463057461882   F   F   F
  0.0000000000000000  0.7500000000000000  0.3279463057461882   F   F   F
  0.3333333333333357  0.7500000000000000  0.3279463057461882   F   F   F
  0.6666666666666643  0.7500000000000000  0.3279463057461882   F   F   F
  0.1665586891096784  0.7592330478780048  0.3845954542447518   T   T   T
  0.4998920224430143  0.7592330478780048  0.3845954542447518   T   T   T
  0.8332253557763497  0.7592330478780048  0.3845954542447518   T   T   T
  0.0001159394621489  0.2575130908247850  0.3843749623889166   T   T   T
  0.3334492727954845  0.2575130908247850  0.3843749623889166   T   T   T
  0.6667826061288127  0.2575130908247850  0.3843749623889166   T   T   T
  0.1672643361548229  0.2543422122827206  0.4407442235571981   T   T   T
  0.5005976694881586  0.2543422122827206  0.4407442235571981   T   T   T
  0.8339310028214949  0.2543422122827206  0.4407442235571981   T   T   T
  0.0008332717709344  0.7517386025423815  0.4406674797346464   T   T   T
  0.3341666051042703  0.7517386025423815  0.4406674797346464   T   T   T
  0.6674999384375986  0.7517386025423815  0.4406674797346464   T   T   T
 -0.0004885375173910  0.7239824674113642  0.1337997222436403   T   T   T
  0.3328447958159446  0.7239824674113642  0.1337997222436403   T   T   T
  0.6661781291492733  0.7239824674113642  0.1337997222436332   T   T   T
  0.1659536513026943  0.0547790216750242  0.1546301596832790   T   T   T
  0.4992869846360298  0.0547790216750242  0.1546301596832790   T   T   T
  0.8326203179693656  0.0547790216750242  0.1546301596832790   T   T   T
 -0.0004951872667613  0.7537202993873893  0.1800587065396778   T   T   T
  0.3328381460665743  0.7537202993873893  0.1800587065396778   T   T   T
  0.6661714793999026  0.7537202993873893  0.1800587065396778   T   T   T
  0.1659909832235746  0.4379866524177851  0.1591130670777815   T   T   T
  0.4993243165569098  0.4379866524177851  0.1591130670777815   T   T   T
  0.8326576498902452  0.4379866524177851  0.1591130670777815   T   T   T
  0.0001593167954127  0.2269740855469729  0.1930757678626774   T   T   T
  0.3334926501287482  0.2269740855469729  0.1930757678626774   T   T   T
  0.6668259834620767  0.2269740855469729  0.1930757678626774   T   T   T
  0.1665861485505667  0.5499735608338974  0.2145485923076519   T   T   T
  0.4999194818839028  0.5499735608338974  0.2145485923076519   T   T   T
  0.8332528152172385  0.5499735608338974  0.2145485923076519   T   T   T
  0.0000955543684615  0.2469871544526102  0.2365155482697973   T   T   T
  0.3334288877017972  0.2469871544526102  0.2365155482697973   T   T   T
  0.6667622210351258  0.2469871544526102  0.2365155482697973   T   T   T
  0.1666122796439639  0.9330750308061702  0.2151337395796269   T   T   T
  0.4999456129772991  0.9330750308061702  0.2151337395796269   T   T   T
  0.8332789463106347  0.9330750308061702  0.2151337395796269   T   T   T
  0.0000000000000000  0.7500000000000000  0.2497247611577791   F   F   F
  0.3333333333333357  0.7500000000000000  0.2497247611577791   F   F   F
  0.6666666666666643  0.7500000000000000  0.2497247611577791   F   F   F
  0.1666666666666643  0.0582938416084460  0.2714038392382250   F   F   F
  0.5000000000000000  0.0582938416084460  0.2714038392382250   F   F   F
  0.8333333333333357  0.0582938416084460  0.2714038392382250   F   F   F
  0.0000000000000000  0.7500000000000000  0.2930829173186780   F   F   F
  0.3333333333333357  0.7500000000000000  0.2930829173186780   F   F   F
  0.6666666666666643  0.7500000000000000  0.2930829173186780   F   F   F
  0.1666666666666643  0.4417061583915540  0.2714038392382250   F   F   F
  0.5000000000000000  0.4417061583915540  0.2714038392382250   F   F   F
  0.8333333333333357  0.4417061583915540  0.2714038392382250   F   F   F
  0.0000000000000000  0.2500000000000000  0.3062672276657423   F   F   F
  0.3333333333333357  0.2500000000000000  0.3062672276657423   F   F   F
  0.6666666666666643  0.2500000000000000  0.3062672276657423   F   F   F
  0.1666666666666643  0.5582938416084460  0.3279463057461882   F   F   F
  0.5000000000000000  0.5582938416084460  0.3279463057461882   F   F   F
  0.8333333333333357  0.5582938416084460  0.3279463057461882   F   F   F
  0.0000000000000000  0.2500000000000000  0.3496253838266412   F   F   F
  0.3333333333333357  0.2500000000000000  0.3496253838266412   F   F   F
  0.6666666666666643  0.2500000000000000  0.3496253838266412   F   F   F
  0.1666666666666643  0.9417061583915540  0.3279463057461882   F   F   F
  0.5000000000000000  0.9417061583915540  0.3279463057461882   F   F   F
  0.8333333333333357  0.9417061583915540  0.3279463057461882   F   F   F
 -0.0000955543684615  0.7530128455473897  0.3628345967146230   T   T   T
  0.3332377789648742  0.7530128455473897  0.3628345967146230   T   T   T
  0.6665711122982028  0.7530128455473897  0.3628345967146230   T   T   T
  0.1667210536893647  0.0669249691938296  0.3842164054047864   T   T   T
  0.5000543870227008  0.0669249691938296  0.3842164054047864   T   T   T
  0.8333877203560367  0.0669249691938296  0.3842164054047864   T   T   T
 -0.0001593167954127  0.7730259144530278  0.4062743771217430   T   T   T
  0.3331740165379232  0.7730259144530278  0.4062743771217430   T   T   T
  0.6665073498712519  0.7730259144530278  0.4062743771217430   T   T   T
  0.1667471847827618  0.4500264391661035  0.3848015526767612   T   T   T
  0.5000805181160978  0.4500264391661035  0.3848015526767612   T   T   T
  0.8334138514494329  0.4500264391661035  0.3848015526767612   T   T   T
  0.0004951872667613  0.2462797006126107  0.4192914384447422   T   T   T
  0.3338285206000971  0.2462797006126107  0.4192914384447422   T   T   T
  0.6671618539334260  0.2462797006126107  0.4192914384447422   T   T   T
  0.1673423501097540  0.5620133475822152  0.4402370779066316   T   T   T
  0.5006756834430899  0.5620133475822152  0.4402370779066316   T   T   T
  0.8340090167764262  0.5620133475822152  0.4402370779066316   T   T   T
  0.0004885375173910  0.2760175325886357  0.4655504227407804   T   T   T
  0.3338218708507268  0.2760175325886356  0.4655504227407804   T   T   T
  0.6671552041840553  0.2760175325886357  0.4655504227407804   T   T   T
  0.1673796820306342  0.9452209783249759  0.4447199853011342   T   T   T
  0.5007130153639698  0.9452209783249759  0.4447199853011342   T   T   T
  0.8340463486973058  0.9452209783249759  0.4447199853011342   T   T   T
 -0.0043862568531243  0.3200334745858245  0.1200405551586538   T   T   T
  0.0043862568531243  0.6799665254141752  0.4793079790433042   T   T   T
  0.3289470764802114  0.3200334745858245  0.1200405551586538   T   T   T
  0.6710529235197888  0.6799665254141752  0.4793079790433042   T   T   T
  0.6622804098135397  0.3200334745858245  0.1200405551586538   T   T   T
  0.3377195901864600  0.6799665254141752  0.4793079790433042   T   T   T
 
  0.00000000E+00  0.00000000E+00  0.00000000E+00
  0.00000000E+00  0.00000000E+00  0.00000000E+00
  0.00000000E+00  0.00000000E+00  0.00000000E+00
  0.00000000E+00  0.00000000E+00  0.00000000E+00
  0.00000000E+00  0.00000000E+00  0.00000000E+00
  0.00000000E+00  0.00000000E+00  0.00000000E+00
  0.00000000E+00  0.00000000E+00  0.00000000E+00
  0.00000000E+00  0.00000000E+00  0.00000000E+00
  0.00000000E+00  0.00000000E+00  0.00000000E+00
  0.00000000E+00  0.00000000E+00  0.00000000E+00
  0.00000000E+00  0.00000000E+00  0.00000000E+00
  0.00000000E+00  0.00000000E+00  0.00000000E+00
  0.00000000E+00  0.00000000E+00  0.00000000E+00
  0.00000000E+00  0.00000000E+00  0.00000000E+00
  0.00000000E+00  0.00000000E+00  0.00000000E+00
  0.00000000E+00  0.00000000E+00  0.00000000E+00
  0.00000000E+00  0.00000000E+00  0.00000000E+00
  0.00000000E+00  0.00000000E+00  0.00000000E+00
  0.00000000E+00  0.00000000E+00  0.00000000E+00
  0.00000000E+00  0.00000000E+00  0.00000000E+00
  0.00000000E+00  0.00000000E+00  0.00000000E+00
  0.00000000E+00  0.00000000E+00  0.00000000E+00
  0.00000000E+00  0.00000000E+00  0.00000000E+00
  0.00000000E+00  0.00000000E+00  0.00000000E+00
  0.00000000E+00  0.00000000E+00  0.00000000E+00
  0.00000000E+00  0.00000000E+00  0.00000000E+00
  0.00000000E+00  0.00000000E+00  0.00000000E+00
  0.00000000E+00  0.00000000E+00  0.00000000E+00
  0.00000000E+00  0.00000000E+00  0.00000000E+00
  0.00000000E+00  0.00000000E+00  0.00000000E+00
  0.00000000E+00  0.00000000E+00  0.00000000E+00
  0.00000000E+00  0.00000000E+00  0.00000000E+00
  0.00000000E+00  0.00000000E+00  0.00000000E+00
  0.00000000E+00  0.00000000E+00  0.00000000E+00
  0.00000000E+00  0.00000000E+00  0.00000000E+00
  0.00000000E+00  0.00000000E+00  0.00000000E+00
  0.00000000E+00  0.00000000E+00  0.00000000E+00
  0.00000000E+00  0.00000000E+00  0.00000000E+00
  0.00000000E+00  0.00000000E+00  0.00000000E+00
  0.00000000E+00  0.00000000E+00  0.00000000E+00
  0.00000000E+00  0.00000000E+00  0.00000000E+00
  0.00000000E+00  0.00000000E+00  0.00000000E+00
  0.00000000E+00  0.00000000E+00  0.00000000E+00
  0.00000000E+00  0.00000000E+00  0.00000000E+00
  0.00000000E+00  0.00000000E+00  0.00000000E+00
  0.00000000E+00  0.00000000E+00  0.00000000E+00
  0.00000000E+00  0.00000000E+00  0.00000000E+00
  0.00000000E+00  0.00000000E+00  0.00000000E+00
  0.00000000E+00  0.00000000E+00  0.00000000E+00
  0.00000000E+00  0.00000000E+00  0.00000000E+00
  0.00000000E+00  0.00000000E+00  0.00000000E+00
  0.00000000E+00  0.00000000E+00  0.00000000E+00
  0.00000000E+00  0.00000000E+00  0.00000000E+00
  0.00000000E+00  0.00000000E+00  0.00000000E+00
  0.00000000E+00  0.00000000E+00  0.00000000E+00
  0.00000000E+00  0.00000000E+00  0.00000000E+00
  0.00000000E+00  0.00000000E+00  0.00000000E+00
  0.00000000E+00  0.00000000E+00  0.00000000E+00
  0.00000000E+00  0.00000000E+00  0.00000000E+00
  0.00000000E+00  0.00000000E+00  0.00000000E+00
  0.00000000E+00  0.00000000E+00  0.00000000E+00
  0.00000000E+00  0.00000000E+00  0.00000000E+00
  0.00000000E+00  0.00000000E+00  0.00000000E+00
  0.00000000E+00  0.00000000E+00  0.00000000E+00
  0.00000000E+00  0.00000000E+00  0.00000000E+00
  0.00000000E+00  0.00000000E+00  0.00000000E+00
  0.00000000E+00  0.00000000E+00  0.00000000E+00
  0.00000000E+00  0.00000000E+00  0.00000000E+00
  0.00000000E+00  0.00000000E+00  0.00000000E+00
  0.00000000E+00  0.00000000E+00  0.00000000E+00
  0.00000000E+00  0.00000000E+00  0.00000000E+00
  0.00000000E+00  0.00000000E+00  0.00000000E+00
  0.00000000E+00  0.00000000E+00  0.00000000E+00
  0.00000000E+00  0.00000000E+00  0.00000000E+00
  0.00000000E+00  0.00000000E+00  0.00000000E+00
  0.00000000E+00  0.00000000E+00  0.00000000E+00
  0.00000000E+00  0.00000000E+00  0.00000000E+00
  0.00000000E+00  0.00000000E+00  0.00000000E+00
  0.00000000E+00  0.00000000E+00  0.00000000E+00
  0.00000000E+00  0.00000000E+00  0.00000000E+00
  0.00000000E+00  0.00000000E+00  0.00000000E+00
  0.00000000E+00  0.00000000E+00  0.00000000E+00
  0.00000000E+00  0.00000000E+00  0.00000000E+00
  0.00000000E+00  0.00000000E+00  0.00000000E+00
  0.00000000E+00  0.00000000E+00  0.00000000E+00
  0.00000000E+00  0.00000000E+00  0.00000000E+00
  0.00000000E+00  0.00000000E+00  0.00000000E+00
  0.00000000E+00  0.00000000E+00  0.00000000E+00
  0.00000000E+00  0.00000000E+00  0.00000000E+00
  0.00000000E+00  0.00000000E+00  0.00000000E+00
  0.00000000E+00  0.00000000E+00  0.00000000E+00
  0.00000000E+00  0.00000000E+00  0.00000000E+00
  0.00000000E+00  0.00000000E+00  0.00000000E+00
  0.00000000E+00  0.00000000E+00  0.00000000E+00
  0.00000000E+00  0.00000000E+00  0.00000000E+00
  0.00000000E+00  0.00000000E+00  0.00000000E+00
  0.00000000E+00  0.00000000E+00  0.00000000E+00
  0.00000000E+00  0.00000000E+00  0.00000000E+00
  0.00000000E+00  0.00000000E+00  0.00000000E+00
  0.00000000E+00  0.00000000E+00  0.00000000E+00
  0.00000000E+00  0.00000000E+00  0.00000000E+00
  0.00000000E+00  0.00000000E+00  0.00000000E+00
  0.00000000E+00  0.00000000E+00  0.00000000E+00
  0.00000000E+00  0.00000000E+00  0.00000000E+00
  0.00000000E+00  0.00000000E+00  0.00000000E+00
  0.00000000E+00  0.00000000E+00  0.00000000E+00
  0.00000000E+00  0.00000000E+00  0.00000000E+00
  0.00000000E+00  0.00000000E+00  0.00000000E+00
  0.00000000E+00  0.00000000E+00  0.00000000E+00
  0.00000000E+00  0.00000000E+00  0.00000000E+00
  0.00000000E+00  0.00000000E+00  0.00000000E+00
  0.00000000E+00  0.00000000E+00  0.00000000E+00
  0.00000000E+00  0.00000000E+00  0.00000000E+00
  0.00000000E+00  0.00000000E+00  0.00000000E+00
  0.00000000E+00  0.00000000E+00  0.00000000E+00
  0.00000000E+00  0.00000000E+00  0.00000000E+00
  0.00000000E+00  0.00000000E+00  0.00000000E+00
  0.00000000E+00  0.00000000E+00  0.00000000E+00
  0.00000000E+00  0.00000000E+00  0.00000000E+00
  0.00000000E+00  0.00000000E+00  0.00000000E+00
  0.00000000E+00  0.00000000E+00  0.00000000E+00
  0.00000000E+00  0.00000000E+00  0.00000000E+00
  0.00000000E+00  0.00000000E+00  0.00000000E+00
  0.00000000E+00  0.00000000E+00  0.00000000E+00
  0.00000000E+00  0.00000000E+00  0.00000000E+00
  0.00000000E+00  0.00000000E+00  0.00000000E+00
  0.00000000E+00  0.00000000E+00  0.00000000E+00
  0.00000000E+00  0.00000000E+00  0.00000000E+00
  0.00000000E+00  0.00000000E+00  0.00000000E+00
  0.00000000E+00  0.00000000E+00  0.00000000E+00
  0.00000000E+00  0.00000000E+00  0.00000000E+00
  0.00000000E+00  0.00000000E+00  0.00000000E+00
