Ir36 H12 O72                            
   1.00000000000000     
     9.5325385040720789    0.0000000000000000    0.0000000000000006
     0.0000000000000010    6.4022918038617691    0.0000000000000004
     0.0000000000000000    0.0000000000000000   56.6148967251015165
   H    Ir   O 
    12    36    72
Selective dynamics
Direct
 -0.0000106401049238  0.2480071732887162  0.1278233723902719   T   T   T
  0.0000106401049238  0.7519928267112836  0.4715251618116790   T   T   T
  0.3333226932284118  0.2480071732887162  0.1278233723902719   T   T   T
  0.6666773067715880  0.7519928267112836  0.4715251618116790   T   T   T
  0.6666560265617406  0.2480071732887162  0.1278233723902719   T   T   T
  0.3333439734382596  0.7519928267112836  0.4715251618116790   T   T   T
  0.9999912515463235  0.8897694407414797  0.1267542035618620   T   T   T
  0.0000087484536765  0.1102305592585201  0.4725943306400960   T   T   T
  0.6666579182129878  0.8897694407414797  0.1267542035618620   T   T   T
  0.3333420817870121  0.1102305592585201  0.4725943306400960   T   T   T
  0.3333245848796593  0.8897694407414797  0.1267542035618620   T   T   T
  0.6666754151203408  0.1102305592585201  0.4725943306400960   T   T   T
  0.1666582300679414  0.7489728712382999  0.1579134635677413   T   T   T
  0.4999915634012773  0.7489728712382999  0.1579134635677413   T   T   T
  0.8333248967346130  0.7489728712382999  0.1579134635677413   T   T   T
 -0.0000092104096651  0.2493523016495566  0.1559512617653353   T   T   T
  0.3333241229236706  0.2493523016495566  0.1559512617653353   T   T   T
  0.6666574562569991  0.2493523016495566  0.1559512617653353   T   T   T
  0.1666633285263184  0.2487993753841610  0.2150591021522854   T   T   T
  0.4999966618596541  0.2487993753841610  0.2150591021522854   T   T   T
  0.8333299951929896  0.2487993753841610  0.2150591021522854   T   T   T
 -0.0000022195730276  0.7484452505313769  0.2147438483041470   T   T   T
  0.3333311137603081  0.7484452505313769  0.2147438483041470   T   T   T
  0.6666644470936367  0.7484452505313769  0.2147438483041470   T   T   T
  0.1666666666666643  0.7500000000000000  0.2714038392382250   F   F   F
  0.5000000000000000  0.7500000000000000  0.2714038392382250   F   F   F
  0.8333333333333357  0.7500000000000000  0.2714038392382250   F   F   F
  0.0000000000000000  0.2500000000000000  0.2714038392382250   F   F   F
  0.3333333333333357  0.2500000000000000  0.2714038392382250   F   F   F
  0.6666666666666643  0.2500000000000000  0.2714038392382250   F   F   F
  0.1666666666666643  0.2500000000000000  0.3279463057461882   F   F   F
  0.5000000000000000  0.2500000000000000  0.3279463057461882   F   F   F
  0.8333333333333357  0.2500000000000000  0.3279463057461882   F   F   F
  0.0000000000000000  0.7500000000000000  0.3279463057461882   F   F   F
  0.3333333333333357  0.7500000000000000  0.3279463057461882   F   F   F
  0.6666666666666643  0.7500000000000000  0.3279463057461882   F   F   F
  0.1666700048070102  0.7512006246158387  0.3842910428321278   T   T   T
  0.5000033381403461  0.7512006246158387  0.3842910428321278   T   T   T
  0.8333366714736818  0.7512006246158387  0.3842910428321278   T   T   T
  0.0000022195730276  0.2515547494686236  0.3846062966802661   T   T   T
  0.3333355529063633  0.2515547494686236  0.3846062966802661   T   T   T
  0.6666688862396919  0.2515547494686236  0.3846062966802661   T   T   T
  0.1666751032653871  0.2510271287617003  0.4414366814166721   T   T   T
  0.5000084365987228  0.2510271287617003  0.4414366814166721   T   T   T
  0.8333417699320584  0.2510271287617003  0.4414366814166721   T   T   T
  0.0000092104096651  0.7506476983504434  0.4433988832190778   T   T   T
  0.3333425437430008  0.7506476983504434  0.4433988832190778   T   T   T
  0.6666758770763295  0.7506476983504434  0.4433988832190778   T   T   T
 -0.0000083025597723  0.7523274589814960  0.1344700252472253   T   T   T
  0.3333250307735632  0.7523274589814960  0.1344700252472253   T   T   T
  0.6666583641068921  0.7523274589814960  0.1344700252472182   T   T   T
  0.1666575966813508  0.0562214773223256  0.1567627169498712   T   T   T
  0.4999909300146864  0.0562214773223256  0.1567627169498712   T   T   T
  0.8333242633480222  0.0562214773223256  0.1567627169498712   T   T   T
 -0.0000074627296577  0.7440672096618469  0.1796718909346897   T   T   T
  0.3333258706036781  0.7440672096618469  0.1796718909346897   T   T   T
  0.6666592039370067  0.7440672096618469  0.1796718909346897   T   T   T
  0.1666571771909042  0.4416532388150136  0.1560513731500677   T   T   T
  0.4999905105242398  0.4416532388150136  0.1560513731500677   T   T   T
  0.8333238438575755  0.4416532388150136  0.1560513731500677   T   T   T
 -0.0000040291268584  0.2498190526536508  0.1938089818534312   T   T   T
  0.3333293042064774  0.2498190526536508  0.1938089818534312   T   T   T
  0.6666626375398059  0.2498190526536508  0.1938089818534312   T   T   T
  0.1666641774206422  0.5567569438789892  0.2150075368875325   T   T   T
  0.4999975107539780  0.5567569438789892  0.2150075368875325   T   T   T
  0.8333308440873135  0.5567569438789892  0.2150075368875325   T   T   T
 -0.0000030725002072  0.2486267205867967  0.2366626924800160   T   T   T
  0.3333302608331286  0.2486267205867967  0.2366626924800160   T   T   T
  0.6666635941664574  0.2486267205867967  0.2366626924800160   T   T   T
  0.1666645579453784  0.9404784908724204  0.2147674293411233   T   T   T
  0.4999978912787139  0.9404784908724204  0.2147674293411233   T   T   T
  0.8333312246120494  0.9404784908724204  0.2147674293411233   T   T   T
  0.0000000000000000  0.7500000000000000  0.2497247611577791   F   F   F
  0.3333333333333357  0.7500000000000000  0.2497247611577791   F   F   F
  0.6666666666666643  0.7500000000000000  0.2497247611577791   F   F   F
  0.1666666666666643  0.0582938416084460  0.2714038392382250   F   F   F
  0.5000000000000000  0.0582938416084460  0.2714038392382250   F   F   F
  0.8333333333333357  0.0582938416084460  0.2714038392382250   F   F   F
  0.0000000000000000  0.7500000000000000  0.2930829173186780   F   F   F
  0.3333333333333357  0.7500000000000000  0.2930829173186780   F   F   F
  0.6666666666666643  0.7500000000000000  0.2930829173186780   F   F   F
  0.1666666666666643  0.4417061583915540  0.2714038392382250   F   F   F
  0.5000000000000000  0.4417061583915540  0.2714038392382250   F   F   F
  0.8333333333333357  0.4417061583915540  0.2714038392382250   F   F   F
  0.0000000000000000  0.2500000000000000  0.3062672276657423   F   F   F
  0.3333333333333357  0.2500000000000000  0.3062672276657423   F   F   F
  0.6666666666666643  0.2500000000000000  0.3062672276657423   F   F   F
  0.1666666666666643  0.5582938416084460  0.3279463057461882   F   F   F
  0.5000000000000000  0.5582938416084460  0.3279463057461882   F   F   F
  0.8333333333333357  0.5582938416084460  0.3279463057461882   F   F   F
  0.0000000000000000  0.2500000000000000  0.3496253838266412   F   F   F
  0.3333333333333357  0.2500000000000000  0.3496253838266412   F   F   F
  0.6666666666666643  0.2500000000000000  0.3496253838266412   F   F   F
  0.1666666666666643  0.9417061583915540  0.3279463057461882   F   F   F
  0.5000000000000000  0.9417061583915540  0.3279463057461882   F   F   F
  0.8333333333333357  0.9417061583915540  0.3279463057461882   F   F   F
  0.0000030725002072  0.7513732794132034  0.3626874525044045   T   T   T
  0.3333364058335428  0.7513732794132034  0.3626874525044045   T   T   T
  0.6666697391668712  0.7513732794132034  0.3626874525044045   T   T   T
  0.1666687753879502  0.0595215091275796  0.3845827156432897   T   T   T
  0.5000021087212863  0.0595215091275796  0.3845827156432897   T   T   T
  0.8333354420546220  0.0595215091275796  0.3845827156432897   T   T   T
  0.0000040291268584  0.7501809473463490  0.4055411631309894   T   T   T
  0.3333373624601940  0.7501809473463490  0.4055411631309894   T   T   T
  0.6666706957935227  0.7501809473463490  0.4055411631309894   T   T   T
  0.1666691559126864  0.4432430561210109  0.3843426080968808   T   T   T
  0.5000024892460222  0.4432430561210109  0.3843426080968808   T   T   T
  0.8333358225793579  0.4432430561210109  0.3843426080968808   T   T   T
  0.0000074627296577  0.2559327903381527  0.4196782540497307   T   T   T
  0.3333407960629933  0.2559327903381527  0.4196782540497307   T   T   T
  0.6666741293963219  0.2559327903381527  0.4196782540497307   T   T   T
  0.1666761561424244  0.5583467611849862  0.4432987718343456   T   T   T
  0.5000094894757602  0.5583467611849862  0.4432987718343456   T   T   T
  0.8333428228090959  0.5583467611849862  0.4432987718343456   T   T   T
  0.0000083025597723  0.2476725410185037  0.4648801197371951   T   T   T
  0.3333416358931082  0.2476725410185037  0.4648801197371951   T   T   T
  0.6666749692264365  0.2476725410185037  0.4648801197371951   T   T   T
  0.1666757366519778  0.9437785226776745  0.4425874280345418   T   T   T
  0.5000090699853136  0.9437785226776745  0.4425874280345418   T   T   T
  0.8333424033186492  0.9437785226776745  0.4425874280345418   T   T   T
 
  0.00000000E+00  0.00000000E+00  0.00000000E+00
  0.00000000E+00  0.00000000E+00  0.00000000E+00
  0.00000000E+00  0.00000000E+00  0.00000000E+00
  0.00000000E+00  0.00000000E+00  0.00000000E+00
  0.00000000E+00  0.00000000E+00  0.00000000E+00
  0.00000000E+00  0.00000000E+00  0.00000000E+00
  0.00000000E+00  0.00000000E+00  0.00000000E+00
  0.00000000E+00  0.00000000E+00  0.00000000E+00
  0.00000000E+00  0.00000000E+00  0.00000000E+00
  0.00000000E+00  0.00000000E+00  0.00000000E+00
  0.00000000E+00  0.00000000E+00  0.00000000E+00
  0.00000000E+00  0.00000000E+00  0.00000000E+00
  0.00000000E+00  0.00000000E+00  0.00000000E+00
  0.00000000E+00  0.00000000E+00  0.00000000E+00
  0.00000000E+00  0.00000000E+00  0.00000000E+00
  0.00000000E+00  0.00000000E+00  0.00000000E+00
  0.00000000E+00  0.00000000E+00  0.00000000E+00
  0.00000000E+00  0.00000000E+00  0.00000000E+00
  0.00000000E+00  0.00000000E+00  0.00000000E+00
  0.00000000E+00  0.00000000E+00  0.00000000E+00
  0.00000000E+00  0.00000000E+00  0.00000000E+00
  0.00000000E+00  0.00000000E+00  0.00000000E+00
  0.00000000E+00  0.00000000E+00  0.00000000E+00
  0.00000000E+00  0.00000000E+00  0.00000000E+00
  0.00000000E+00  0.00000000E+00  0.00000000E+00
  0.00000000E+00  0.00000000E+00  0.00000000E+00
  0.00000000E+00  0.00000000E+00  0.00000000E+00
  0.00000000E+00  0.00000000E+00  0.00000000E+00
  0.00000000E+00  0.00000000E+00  0.00000000E+00
  0.00000000E+00  0.00000000E+00  0.00000000E+00
  0.00000000E+00  0.00000000E+00  0.00000000E+00
  0.00000000E+00  0.00000000E+00  0.00000000E+00
  0.00000000E+00  0.00000000E+00  0.00000000E+00
  0.00000000E+00  0.00000000E+00  0.00000000E+00
  0.00000000E+00  0.00000000E+00  0.00000000E+00
  0.00000000E+00  0.00000000E+00  0.00000000E+00
  0.00000000E+00  0.00000000E+00  0.00000000E+00
  0.00000000E+00  0.00000000E+00  0.00000000E+00
  0.00000000E+00  0.00000000E+00  0.00000000E+00
  0.00000000E+00  0.00000000E+00  0.00000000E+00
  0.00000000E+00  0.00000000E+00  0.00000000E+00
  0.00000000E+00  0.00000000E+00  0.00000000E+00
  0.00000000E+00  0.00000000E+00  0.00000000E+00
  0.00000000E+00  0.00000000E+00  0.00000000E+00
  0.00000000E+00  0.00000000E+00  0.00000000E+00
  0.00000000E+00  0.00000000E+00  0.00000000E+00
  0.00000000E+00  0.00000000E+00  0.00000000E+00
  0.00000000E+00  0.00000000E+00  0.00000000E+00
  0.00000000E+00  0.00000000E+00  0.00000000E+00
  0.00000000E+00  0.00000000E+00  0.00000000E+00
  0.00000000E+00  0.00000000E+00  0.00000000E+00
  0.00000000E+00  0.00000000E+00  0.00000000E+00
  0.00000000E+00  0.00000000E+00  0.00000000E+00
  0.00000000E+00  0.00000000E+00  0.00000000E+00
  0.00000000E+00  0.00000000E+00  0.00000000E+00
  0.00000000E+00  0.00000000E+00  0.00000000E+00
  0.00000000E+00  0.00000000E+00  0.00000000E+00
  0.00000000E+00  0.00000000E+00  0.00000000E+00
  0.00000000E+00  0.00000000E+00  0.00000000E+00
  0.00000000E+00  0.00000000E+00  0.00000000E+00
  0.00000000E+00  0.00000000E+00  0.00000000E+00
  0.00000000E+00  0.00000000E+00  0.00000000E+00
  0.00000000E+00  0.00000000E+00  0.00000000E+00
  0.00000000E+00  0.00000000E+00  0.00000000E+00
  0.00000000E+00  0.00000000E+00  0.00000000E+00
  0.00000000E+00  0.00000000E+00  0.00000000E+00
  0.00000000E+00  0.00000000E+00  0.00000000E+00
  0.00000000E+00  0.00000000E+00  0.00000000E+00
  0.00000000E+00  0.00000000E+00  0.00000000E+00
  0.00000000E+00  0.00000000E+00  0.00000000E+00
  0.00000000E+00  0.00000000E+00  0.00000000E+00
  0.00000000E+00  0.00000000E+00  0.00000000E+00
  0.00000000E+00  0.00000000E+00  0.00000000E+00
  0.00000000E+00  0.00000000E+00  0.00000000E+00
  0.00000000E+00  0.00000000E+00  0.00000000E+00
  0.00000000E+00  0.00000000E+00  0.00000000E+00
  0.00000000E+00  0.00000000E+00  0.00000000E+00
  0.00000000E+00  0.00000000E+00  0.00000000E+00
  0.00000000E+00  0.00000000E+00  0.00000000E+00
  0.00000000E+00  0.00000000E+00  0.00000000E+00
  0.00000000E+00  0.00000000E+00  0.00000000E+00
  0.00000000E+00  0.00000000E+00  0.00000000E+00
  0.00000000E+00  0.00000000E+00  0.00000000E+00
  0.00000000E+00  0.00000000E+00  0.00000000E+00
  0.00000000E+00  0.00000000E+00  0.00000000E+00
  0.00000000E+00  0.00000000E+00  0.00000000E+00
  0.00000000E+00  0.00000000E+00  0.00000000E+00
  0.00000000E+00  0.00000000E+00  0.00000000E+00
  0.00000000E+00  0.00000000E+00  0.00000000E+00
  0.00000000E+00  0.00000000E+00  0.00000000E+00
  0.00000000E+00  0.00000000E+00  0.00000000E+00
  0.00000000E+00  0.00000000E+00  0.00000000E+00
  0.00000000E+00  0.00000000E+00  0.00000000E+00
  0.00000000E+00  0.00000000E+00  0.00000000E+00
  0.00000000E+00  0.00000000E+00  0.00000000E+00
  0.00000000E+00  0.00000000E+00  0.00000000E+00
  0.00000000E+00  0.00000000E+00  0.00000000E+00
  0.00000000E+00  0.00000000E+00  0.00000000E+00
  0.00000000E+00  0.00000000E+00  0.00000000E+00
  0.00000000E+00  0.00000000E+00  0.00000000E+00
  0.00000000E+00  0.00000000E+00  0.00000000E+00
  0.00000000E+00  0.00000000E+00  0.00000000E+00
  0.00000000E+00  0.00000000E+00  0.00000000E+00
  0.00000000E+00  0.00000000E+00  0.00000000E+00
  0.00000000E+00  0.00000000E+00  0.00000000E+00
  0.00000000E+00  0.00000000E+00  0.00000000E+00
  0.00000000E+00  0.00000000E+00  0.00000000E+00
  0.00000000E+00  0.00000000E+00  0.00000000E+00
  0.00000000E+00  0.00000000E+00  0.00000000E+00
  0.00000000E+00  0.00000000E+00  0.00000000E+00
  0.00000000E+00  0.00000000E+00  0.00000000E+00
  0.00000000E+00  0.00000000E+00  0.00000000E+00
  0.00000000E+00  0.00000000E+00  0.00000000E+00
  0.00000000E+00  0.00000000E+00  0.00000000E+00
  0.00000000E+00  0.00000000E+00  0.00000000E+00
  0.00000000E+00  0.00000000E+00  0.00000000E+00
  0.00000000E+00  0.00000000E+00  0.00000000E+00
  0.00000000E+00  0.00000000E+00  0.00000000E+00
  0.00000000E+00  0.00000000E+00  0.00000000E+00
  0.00000000E+00  0.00000000E+00  0.00000000E+00
