Ir36 H12 O78                            
   1.00000000000000     
     9.5325385040720789    0.0000000000000000    0.0000000000000006
     0.0000000000000010    6.4022918038617691    0.0000000000000004
     0.0000000000000000    0.0000000000000000   56.6148967251015165
   H    Ir   O 
    12    36    78
Selective dynamics
Direct
  0.0002708955315285  0.9068576806297060  0.1277347330850347   T   T   T
  0.9997291044684715  0.0931423193702940  0.4716138011169235   T   T   T
  0.6669375621981928  0.9068576806297060  0.1277347330850347   T   T   T
  0.3330624378018072  0.0931423193702940  0.4716138011169235   T   T   T
  0.3336042288648642  0.9068576806297060  0.1277347330850347   T   T   T
  0.6663957711351358  0.0931423193702940  0.4716138011169235   T   T   T
  0.9140194482179282  0.2309140899564923  0.1166495394783169   T   T   T
  0.0859805517820718  0.7690859100435077  0.4826989947236413   T   T   T
  0.5806861148845996  0.2309140899564923  0.1166495394783169   T   T   T
  0.4193138851154004  0.7690859100435077  0.4826989947236413   T   T   T
  0.2473527815512639  0.2309140899564923  0.1166495394783169   T   T   T
  0.7526472184487361  0.7690859100435077  0.4826989947236413   T   T   T
  0.1663895157237576  0.7502810869795127  0.1583797703244798   T   T   T
  0.4997228490570933  0.7502810869795127  0.1583797703244798   T   T   T
  0.8330561823904290  0.7502810869795127  0.1583797703244798   T   T   T
  0.9995542667040738  0.2480251254159853  0.1579797129457745   T   T   T
  0.3328876000374095  0.2480251254159853  0.1579797129457745   T   T   T
  0.6662209333707381  0.2480251254159853  0.1579797129457745   T   T   T
  0.1662183666715293  0.2525633936726805  0.2149011426711382   T   T   T
  0.4995517000048650  0.2525633936726805  0.2149011426711382   T   T   T
  0.8328850333382007  0.2525633936726805  0.2149011426711382   T   T   T
  0.9997644112088295  0.7513470056987259  0.2148587328864480   T   T   T
  0.3330977445421652  0.7513470056987259  0.2148587328864480   T   T   T
  0.6664310778754938  0.7513470056987259  0.2148587328864480   T   T   T
  0.1666666666666643  0.7500000000000000  0.2714038392382250   F   F   F
  0.5000000000000000  0.7500000000000000  0.2714038392382250   F   F   F
  0.8333333333333357  0.7500000000000000  0.2714038392382250   F   F   F
  0.0000000000000000  0.2500000000000000  0.2714038392382250   F   F   F
  0.3333333333333357  0.2500000000000000  0.2714038392382250   F   F   F
  0.6666666666666643  0.2500000000000000  0.2714038392382250   F   F   F
  0.1666666666666643  0.2500000000000000  0.3279463057461882   F   F   F
  0.5000000000000000  0.2500000000000000  0.3279463057461882   F   F   F
  0.8333333333333357  0.2500000000000000  0.3279463057461882   F   F   F
  0.0000000000000000  0.7500000000000000  0.3279463057461882   F   F   F
  0.3333333333333357  0.7500000000000000  0.3279463057461882   F   F   F
  0.6666666666666643  0.7500000000000000  0.3279463057461882   F   F   F
  0.1671149666617993  0.7474366063273195  0.3844490023132749   T   T   T
  0.5004482999951350  0.7474366063273195  0.3844490023132749   T   T   T
  0.8337816333284707  0.7474366063273195  0.3844490023132749   T   T   T
  0.0002355887911705  0.2486529943012741  0.3844914120979652   T   T   T
  0.3335689221245062  0.2486529943012741  0.3844914120979652   T   T   T
  0.6669022554578348  0.2486529943012741  0.3844914120979652   T   T   T
  0.1669438176095710  0.2497189130204944  0.4409703746599334   T   T   T
  0.5002771509429067  0.2497189130204944  0.4409703746599334   T   T   T
  0.8336104842762424  0.2497189130204944  0.4409703746599334   T   T   T
  0.0004457332959262  0.7519748745840147  0.4413704320386387   T   T   T
  0.3337790666292619  0.7519748745840147  0.4413704320386387   T   T   T
  0.6671123999625905  0.7519748745840147  0.4413704320386387   T   T   T
  0.9998149101868137  0.7645170526636491  0.1352197092481688   T   T   T
  0.3331482435201494  0.7645170526636491  0.1352197092481688   T   T   T
  0.6664815768534851  0.7645170526636491  0.1352197092481617   T   T   T
  0.1667154879077870  0.0568264509123537  0.1596873282414748   T   T   T
  0.5000488212411227  0.0568264509123537  0.1596873282414748   T   T   T
  0.8333821545744584  0.0568264509123537  0.1596873282414748   T   T   T
  0.9996923002058509  0.7405249873068911  0.1800498754633182   T   T   T
  0.3330256335391866  0.7405249873068911  0.1800498754633182   T   T   T
  0.6663589668725152  0.7405249873068911  0.1800498754633182   T   T   T
  0.1656019436513176  0.4412562682470877  0.1563016148813503   T   T   T
  0.4989352769846533  0.4412562682470877  0.1563016148813503   T   T   T
  0.8322686103179890  0.4412562682470877  0.1563016148813503   T   T   T
  0.9994903620818931  0.2607385705423653  0.1933515468139220   T   T   T
  0.3328236954152288  0.2607385705423653  0.1933515468139220   T   T   T
  0.6661570287485574  0.2607385705423653  0.1933515468139220   T   T   T
  0.1663273958066966  0.5604791369044904  0.2152632021499556   T   T   T
  0.4996607291400323  0.5604791369044904  0.2152632021499556   T   T   T
  0.8329940624733680  0.5604791369044904  0.2152632021499556   T   T   T
  0.9997520524936334  0.2491527551655039  0.2365309495027361   T   T   T
  0.3330853858269691  0.2491527551655039  0.2365309495027361   T   T   T
  0.6664187191602977  0.2491527551655039  0.2365309495027361   T   T   T
  0.1664035703188347  0.9435077742974229  0.2145829273915680   T   T   T
  0.4997369036521704  0.9435077742974229  0.2145829273915680   T   T   T
  0.8330702369855061  0.9435077742974229  0.2145829273915680   T   T   T
  0.0000000000000000  0.7500000000000000  0.2497247611577791   F   F   F
  0.3333333333333357  0.7500000000000000  0.2497247611577791   F   F   F
  0.6666666666666643  0.7500000000000000  0.2497247611577791   F   F   F
  0.1666666666666643  0.0582938416084460  0.2714038392382250   F   F   F
  0.5000000000000000  0.0582938416084460  0.2714038392382250   F   F   F
  0.8333333333333357  0.0582938416084460  0.2714038392382250   F   F   F
  0.0000000000000000  0.7500000000000000  0.2930829173186780   F   F   F
  0.3333333333333357  0.7500000000000000  0.2930829173186780   F   F   F
  0.6666666666666643  0.7500000000000000  0.2930829173186780   F   F   F
  0.1666666666666643  0.4417061583915540  0.2714038392382250   F   F   F
  0.5000000000000000  0.4417061583915540  0.2714038392382250   F   F   F
  0.8333333333333357  0.4417061583915540  0.2714038392382250   F   F   F
  0.0000000000000000  0.2500000000000000  0.3062672276657423   F   F   F
  0.3333333333333357  0.2500000000000000  0.3062672276657423   F   F   F
  0.6666666666666643  0.2500000000000000  0.3062672276657423   F   F   F
  0.1666666666666643  0.5582938416084460  0.3279463057461882   F   F   F
  0.5000000000000000  0.5582938416084460  0.3279463057461882   F   F   F
  0.8333333333333357  0.5582938416084460  0.3279463057461882   F   F   F
  0.0000000000000000  0.2500000000000000  0.3496253838266412   F   F   F
  0.3333333333333357  0.2500000000000000  0.3496253838266412   F   F   F
  0.6666666666666643  0.2500000000000000  0.3496253838266412   F   F   F
  0.1666666666666643  0.9417061583915540  0.3279463057461882   F   F   F
  0.5000000000000000  0.9417061583915540  0.3279463057461882   F   F   F
  0.8333333333333357  0.9417061583915540  0.3279463057461882   F   F   F
  0.0002479475063666  0.7508472448345032  0.3628191954816842   T   T   T
  0.3335812808397023  0.7508472448345032  0.3628191954816842   T   T   T
  0.6669146141730309  0.7508472448345032  0.3628191954816842   T   T   T
  0.1669297630144939  0.0564922257025771  0.3847672175928452   T   T   T
  0.5002630963478296  0.0564922257025771  0.3847672175928452   T   T   T
  0.8335964296811653  0.0564922257025771  0.3847672175928452   T   T   T
  0.0005096379181069  0.7392614294576347  0.4059985981704983   T   T   T
  0.3338429712514426  0.7392614294576347  0.4059985981704983   T   T   T
  0.6671763045847712  0.7392614294576347  0.4059985981704983   T   T   T
  0.1670059375266320  0.4395208630955096  0.3840869428344575   T   T   T
  0.5003392708599677  0.4395208630955096  0.3840869428344575   T   T   T
  0.8336726041933034  0.4395208630955096  0.3840869428344575   T   T   T
  0.0003076997941491  0.2594750126931089  0.4193002695211021   T   T   T
  0.3336410331274848  0.2594750126931089  0.4193002695211021   T   T   T
  0.6669743664608134  0.2594750126931089  0.4193002695211021   T   T   T
  0.1677313896820110  0.5587437317529123  0.4430485301030629   T   T   T
  0.5010647230153467  0.5587437317529123  0.4430485301030629   T   T   T
  0.8343980563486824  0.5587437317529123  0.4430485301030629   T   T   T
  0.0001850898131863  0.2354829473363509  0.4641304357362515   T   T   T
  0.3335184231465220  0.2354829473363509  0.4641304357362515   T   T   T
  0.6668517564798435  0.2354829473363509  0.4641304357362515   T   T   T
  0.1666178454255416  0.9431735490876463  0.4396628167429384   T   T   T
  0.4999511787588773  0.9431735490876463  0.4396628167429384   T   T   T
  0.8332845120922130  0.9431735490876463  0.4396628167429384   T   T   T
  0.0051065151580048  0.1920694075745359  0.1233444707693536   T   T   T
  0.9948934848419952  0.8079305924254641  0.4760040634326046   T   T   T
  0.3384398484913405  0.1920694075745359  0.1233444707693536   T   T   T
  0.6615601515086595  0.8079305924254641  0.4760040634326046   T   T   T
  0.6717731818246691  0.1920694075745359  0.1233444707693536   T   T   T
  0.3282268181753309  0.8079305924254641  0.4760040634326046   T   T   T
 
  0.00000000E+00  0.00000000E+00  0.00000000E+00
  0.00000000E+00  0.00000000E+00  0.00000000E+00
  0.00000000E+00  0.00000000E+00  0.00000000E+00
  0.00000000E+00  0.00000000E+00  0.00000000E+00
  0.00000000E+00  0.00000000E+00  0.00000000E+00
  0.00000000E+00  0.00000000E+00  0.00000000E+00
  0.00000000E+00  0.00000000E+00  0.00000000E+00
  0.00000000E+00  0.00000000E+00  0.00000000E+00
  0.00000000E+00  0.00000000E+00  0.00000000E+00
  0.00000000E+00  0.00000000E+00  0.00000000E+00
  0.00000000E+00  0.00000000E+00  0.00000000E+00
  0.00000000E+00  0.00000000E+00  0.00000000E+00
  0.00000000E+00  0.00000000E+00  0.00000000E+00
  0.00000000E+00  0.00000000E+00  0.00000000E+00
  0.00000000E+00  0.00000000E+00  0.00000000E+00
  0.00000000E+00  0.00000000E+00  0.00000000E+00
  0.00000000E+00  0.00000000E+00  0.00000000E+00
  0.00000000E+00  0.00000000E+00  0.00000000E+00
  0.00000000E+00  0.00000000E+00  0.00000000E+00
  0.00000000E+00  0.00000000E+00  0.00000000E+00
  0.00000000E+00  0.00000000E+00  0.00000000E+00
  0.00000000E+00  0.00000000E+00  0.00000000E+00
  0.00000000E+00  0.00000000E+00  0.00000000E+00
  0.00000000E+00  0.00000000E+00  0.00000000E+00
  0.00000000E+00  0.00000000E+00  0.00000000E+00
  0.00000000E+00  0.00000000E+00  0.00000000E+00
  0.00000000E+00  0.00000000E+00  0.00000000E+00
  0.00000000E+00  0.00000000E+00  0.00000000E+00
  0.00000000E+00  0.00000000E+00  0.00000000E+00
  0.00000000E+00  0.00000000E+00  0.00000000E+00
  0.00000000E+00  0.00000000E+00  0.00000000E+00
  0.00000000E+00  0.00000000E+00  0.00000000E+00
  0.00000000E+00  0.00000000E+00  0.00000000E+00
  0.00000000E+00  0.00000000E+00  0.00000000E+00
  0.00000000E+00  0.00000000E+00  0.00000000E+00
  0.00000000E+00  0.00000000E+00  0.00000000E+00
  0.00000000E+00  0.00000000E+00  0.00000000E+00
  0.00000000E+00  0.00000000E+00  0.00000000E+00
  0.00000000E+00  0.00000000E+00  0.00000000E+00
  0.00000000E+00  0.00000000E+00  0.00000000E+00
  0.00000000E+00  0.00000000E+00  0.00000000E+00
  0.00000000E+00  0.00000000E+00  0.00000000E+00
  0.00000000E+00  0.00000000E+00  0.00000000E+00
  0.00000000E+00  0.00000000E+00  0.00000000E+00
  0.00000000E+00  0.00000000E+00  0.00000000E+00
  0.00000000E+00  0.00000000E+00  0.00000000E+00
  0.00000000E+00  0.00000000E+00  0.00000000E+00
  0.00000000E+00  0.00000000E+00  0.00000000E+00
  0.00000000E+00  0.00000000E+00  0.00000000E+00
  0.00000000E+00  0.00000000E+00  0.00000000E+00
  0.00000000E+00  0.00000000E+00  0.00000000E+00
  0.00000000E+00  0.00000000E+00  0.00000000E+00
  0.00000000E+00  0.00000000E+00  0.00000000E+00
  0.00000000E+00  0.00000000E+00  0.00000000E+00
  0.00000000E+00  0.00000000E+00  0.00000000E+00
  0.00000000E+00  0.00000000E+00  0.00000000E+00
  0.00000000E+00  0.00000000E+00  0.00000000E+00
  0.00000000E+00  0.00000000E+00  0.00000000E+00
  0.00000000E+00  0.00000000E+00  0.00000000E+00
  0.00000000E+00  0.00000000E+00  0.00000000E+00
  0.00000000E+00  0.00000000E+00  0.00000000E+00
  0.00000000E+00  0.00000000E+00  0.00000000E+00
  0.00000000E+00  0.00000000E+00  0.00000000E+00
  0.00000000E+00  0.00000000E+00  0.00000000E+00
  0.00000000E+00  0.00000000E+00  0.00000000E+00
  0.00000000E+00  0.00000000E+00  0.00000000E+00
  0.00000000E+00  0.00000000E+00  0.00000000E+00
  0.00000000E+00  0.00000000E+00  0.00000000E+00
  0.00000000E+00  0.00000000E+00  0.00000000E+00
  0.00000000E+00  0.00000000E+00  0.00000000E+00
  0.00000000E+00  0.00000000E+00  0.00000000E+00
  0.00000000E+00  0.00000000E+00  0.00000000E+00
  0.00000000E+00  0.00000000E+00  0.00000000E+00
  0.00000000E+00  0.00000000E+00  0.00000000E+00
  0.00000000E+00  0.00000000E+00  0.00000000E+00
  0.00000000E+00  0.00000000E+00  0.00000000E+00
  0.00000000E+00  0.00000000E+00  0.00000000E+00
  0.00000000E+00  0.00000000E+00  0.00000000E+00
  0.00000000E+00  0.00000000E+00  0.00000000E+00
  0.00000000E+00  0.00000000E+00  0.00000000E+00
  0.00000000E+00  0.00000000E+00  0.00000000E+00
  0.00000000E+00  0.00000000E+00  0.00000000E+00
  0.00000000E+00  0.00000000E+00  0.00000000E+00
  0.00000000E+00  0.00000000E+00  0.00000000E+00
  0.00000000E+00  0.00000000E+00  0.00000000E+00
  0.00000000E+00  0.00000000E+00  0.00000000E+00
  0.00000000E+00  0.00000000E+00  0.00000000E+00
  0.00000000E+00  0.00000000E+00  0.00000000E+00
  0.00000000E+00  0.00000000E+00  0.00000000E+00
  0.00000000E+00  0.00000000E+00  0.00000000E+00
  0.00000000E+00  0.00000000E+00  0.00000000E+00
  0.00000000E+00  0.00000000E+00  0.00000000E+00
  0.00000000E+00  0.00000000E+00  0.00000000E+00
  0.00000000E+00  0.00000000E+00  0.00000000E+00
  0.00000000E+00  0.00000000E+00  0.00000000E+00
  0.00000000E+00  0.00000000E+00  0.00000000E+00
  0.00000000E+00  0.00000000E+00  0.00000000E+00
  0.00000000E+00  0.00000000E+00  0.00000000E+00
  0.00000000E+00  0.00000000E+00  0.00000000E+00
  0.00000000E+00  0.00000000E+00  0.00000000E+00
  0.00000000E+00  0.00000000E+00  0.00000000E+00
  0.00000000E+00  0.00000000E+00  0.00000000E+00
  0.00000000E+00  0.00000000E+00  0.00000000E+00
  0.00000000E+00  0.00000000E+00  0.00000000E+00
  0.00000000E+00  0.00000000E+00  0.00000000E+00
  0.00000000E+00  0.00000000E+00  0.00000000E+00
  0.00000000E+00  0.00000000E+00  0.00000000E+00
  0.00000000E+00  0.00000000E+00  0.00000000E+00
  0.00000000E+00  0.00000000E+00  0.00000000E+00
  0.00000000E+00  0.00000000E+00  0.00000000E+00
  0.00000000E+00  0.00000000E+00  0.00000000E+00
  0.00000000E+00  0.00000000E+00  0.00000000E+00
  0.00000000E+00  0.00000000E+00  0.00000000E+00
  0.00000000E+00  0.00000000E+00  0.00000000E+00
  0.00000000E+00  0.00000000E+00  0.00000000E+00
  0.00000000E+00  0.00000000E+00  0.00000000E+00
  0.00000000E+00  0.00000000E+00  0.00000000E+00
  0.00000000E+00  0.00000000E+00  0.00000000E+00
  0.00000000E+00  0.00000000E+00  0.00000000E+00
  0.00000000E+00  0.00000000E+00  0.00000000E+00
  0.00000000E+00  0.00000000E+00  0.00000000E+00
  0.00000000E+00  0.00000000E+00  0.00000000E+00
  0.00000000E+00  0.00000000E+00  0.00000000E+00
  0.00000000E+00  0.00000000E+00  0.00000000E+00
  0.00000000E+00  0.00000000E+00  0.00000000E+00
  0.00000000E+00  0.00000000E+00  0.00000000E+00
