Ir36 H12 O78                            
   1.00000000000000     
     9.5325385040720789    0.0000000000000000    0.0000000000000006
     0.0000000000000010    6.4022918038617691    0.0000000000000004
     0.0000000000000000    0.0000000000000000   56.6148967251015165
   H    Ir   O 
    12    36    78
Selective dynamics
Direct
  0.0002708955315319  0.9068576806297073  0.1277347330850333   T   T   T
 -0.0002708955315319  0.0931423193702924  0.4716138011169251   T   T   T
  0.6669375621981957  0.9068576806297074  0.1277347330850333   T   T   T
  0.3330624378018040  0.0931423193702924  0.4716138011169251   T   T   T
  0.3336042288648674  0.9068576806297073  0.1277347330850333   T   T   T
  0.6663957711351329  0.0931423193702924  0.4716138011169251   T   T   T
  0.9140194482179267  0.2309140899564890  0.1166495394783156   T   T   T
  0.0859805517820732  0.7690859100435106  0.4826989947236424   T   T   T
  0.5806861148845981  0.2309140899564890  0.1166495394783156   T   T   T
  0.4193138851154017  0.7690859100435106  0.4826989947236424   T   T   T
  0.2473527815512624  0.2309140899564890  0.1166495394783156   T   T   T
  0.7526472184487376  0.7690859100435106  0.4826989947236424   T   T   T
  0.1663895157237543  0.7502810869795092  0.1583797703244765   T   T   T
  0.4997228490570899  0.7502810869795092  0.1583797703244765   T   T   T
  0.8330561823904256  0.7502810869795092  0.1583797703244765   T   T   T
 -0.0004457332959246  0.2480251254159882  0.1579797129457748   T   T   T
  0.3328876000374112  0.2480251254159882  0.1579797129457748   T   T   T
  0.6662209333707400  0.2480251254159882  0.1579797129457748   T   T   T
  0.1662183666715301  0.2525633936726797  0.2149011426711362   T   T   T
  0.4995517000048659  0.2525633936726797  0.2149011426711362   T   T   T
  0.8328850333382012  0.2525633936726797  0.2149011426711362   T   T   T
 -0.0002355887911682  0.7513470056987257  0.2148587328864496   T   T   T
  0.3330977445421675  0.7513470056987257  0.2148587328864496   T   T   T
  0.6664310778754963  0.7513470056987257  0.2148587328864496   T   T   T
  0.1666666666666643  0.7500000000000000  0.2714038392382250   F   F   F
  0.5000000000000000  0.7500000000000000  0.2714038392382250   F   F   F
  0.8333333333333357  0.7500000000000000  0.2714038392382250   F   F   F
  0.0000000000000000  0.2500000000000000  0.2714038392382250   F   F   F
  0.3333333333333357  0.2500000000000000  0.2714038392382250   F   F   F
  0.6666666666666643  0.2500000000000000  0.2714038392382250   F   F   F
  0.1666666666666643  0.2500000000000000  0.3279463057461882   F   F   F
  0.5000000000000000  0.2500000000000000  0.3279463057461882   F   F   F
  0.8333333333333357  0.2500000000000000  0.3279463057461882   F   F   F
  0.0000000000000000  0.7500000000000000  0.3279463057461882   F   F   F
  0.3333333333333357  0.7500000000000000  0.3279463057461882   F   F   F
  0.6666666666666643  0.7500000000000000  0.3279463057461882   F   F   F
  0.1671149666617985  0.7474366063273196  0.3844490023132768   T   T   T
  0.5004482999951346  0.7474366063273196  0.3844490023132768   T   T   T
  0.8337816333284702  0.7474366063273196  0.3844490023132768   T   T   T
  0.0002355887911682  0.2486529943012749  0.3844914120979636   T   T   T
  0.3335689221245040  0.2486529943012749  0.3844914120979636   T   T   T
  0.6669022554578323  0.2486529943012749  0.3844914120979636   T   T   T
  0.1669438176095743  0.2497189130204910  0.4409703746599368   T   T   T
  0.5002771509429100  0.2497189130204910  0.4409703746599368   T   T   T
  0.8336104842762458  0.2497189130204910  0.4409703746599368   T   T   T
  0.0004457332959246  0.7519748745840115  0.4413704320386386   T   T   T
  0.3337790666292602  0.7519748745840115  0.4413704320386386   T   T   T
  0.6671123999625886  0.7519748745840115  0.4413704320386386   T   T   T
 -0.0001850898131828  0.7645170526636489  0.1352197092481702   T   T   T
  0.3331482435201528  0.7645170526636489  0.1352197092481702   T   T   T
  0.6664815768534817  0.7645170526636489  0.1352197092481631   T   T   T
  0.1667154879077862  0.0568264509123571  0.1596873282414763   T   T   T
  0.5000488212411218  0.0568264509123571  0.1596873282414763   T   T   T
  0.8333821545744573  0.0568264509123571  0.1596873282414763   T   T   T
 -0.0003076997941468  0.7405249873068899  0.1800498754633194   T   T   T
  0.3330256335391888  0.7405249873068899  0.1800498754633194   T   T   T
  0.6663589668725173  0.7405249873068899  0.1800498754633194   T   T   T
  0.1656019436513193  0.4412562682470881  0.1563016148813496   T   T   T
  0.4989352769846550  0.4412562682470881  0.1563016148813496   T   T   T
  0.8322686103179907  0.4412562682470881  0.1563016148813496   T   T   T
 -0.0005096379181064  0.2607385705423673  0.1933515468139246   T   T   T
  0.3328236954152293  0.2607385705423673  0.1933515468139246   T   T   T
  0.6661570287485580  0.2607385705423673  0.1933515468139246   T   T   T
  0.1663273958066977  0.5604791369044935  0.2152632021499590   T   T   T
  0.4996607291400333  0.5604791369044935  0.2152632021499590   T   T   T
  0.8329940624733693  0.5604791369044935  0.2152632021499590   T   T   T
 -0.0002479475063688  0.2491527551655005  0.2365309495027332   T   T   T
  0.3330853858269668  0.2491527551655005  0.2365309495027332   T   T   T
  0.6664187191602958  0.2491527551655005  0.2365309495027332   T   T   T
  0.1664035703188368  0.9435077742974262  0.2145829273915671   T   T   T
  0.4997369036521726  0.9435077742974262  0.2145829273915671   T   T   T
  0.8330702369855080  0.9435077742974262  0.2145829273915671   T   T   T
  0.0000000000000000  0.7500000000000000  0.2497247611577791   F   F   F
  0.3333333333333357  0.7500000000000000  0.2497247611577791   F   F   F
  0.6666666666666643  0.7500000000000000  0.2497247611577791   F   F   F
  0.1666666666666643  0.0582938416084460  0.2714038392382250   F   F   F
  0.5000000000000000  0.0582938416084460  0.2714038392382250   F   F   F
  0.8333333333333357  0.0582938416084460  0.2714038392382250   F   F   F
  0.0000000000000000  0.7500000000000000  0.2930829173186780   F   F   F
  0.3333333333333357  0.7500000000000000  0.2930829173186780   F   F   F
  0.6666666666666643  0.7500000000000000  0.2930829173186780   F   F   F
  0.1666666666666643  0.4417061583915540  0.2714038392382250   F   F   F
  0.5000000000000000  0.4417061583915540  0.2714038392382250   F   F   F
  0.8333333333333357  0.4417061583915540  0.2714038392382250   F   F   F
  0.0000000000000000  0.2500000000000000  0.3062672276657423   F   F   F
  0.3333333333333357  0.2500000000000000  0.3062672276657423   F   F   F
  0.6666666666666643  0.2500000000000000  0.3062672276657423   F   F   F
  0.1666666666666643  0.5582938416084460  0.3279463057461882   F   F   F
  0.5000000000000000  0.5582938416084460  0.3279463057461882   F   F   F
  0.8333333333333357  0.5582938416084460  0.3279463057461882   F   F   F
  0.0000000000000000  0.2500000000000000  0.3496253838266412   F   F   F
  0.3333333333333357  0.2500000000000000  0.3496253838266412   F   F   F
  0.6666666666666643  0.2500000000000000  0.3496253838266412   F   F   F
  0.1666666666666643  0.9417061583915540  0.3279463057461882   F   F   F
  0.5000000000000000  0.9417061583915540  0.3279463057461882   F   F   F
  0.8333333333333357  0.9417061583915540  0.3279463057461882   F   F   F
  0.0002479475063688  0.7508472448344999  0.3628191954816872   T   T   T
  0.3335812808397046  0.7508472448344999  0.3628191954816872   T   T   T
  0.6669146141730328  0.7508472448344999  0.3628191954816872   T   T   T
  0.1669297630144918  0.0564922257025738  0.3847672175928460   T   T   T
  0.5002630963478280  0.0564922257025738  0.3847672175928460   T   T   T
  0.8335964296811634  0.0564922257025738  0.3847672175928460   T   T   T
  0.0005096379181064  0.7392614294576317  0.4059985981704958   T   T   T
  0.3338429712514421  0.7392614294576317  0.4059985981704958   T   T   T
  0.6671763045847706  0.7392614294576317  0.4059985981704958   T   T   T
  0.1670059375266309  0.4395208630955069  0.3840869428344542   T   T   T
  0.5003392708599665  0.4395208630955069  0.3840869428344542   T   T   T
  0.8336726041933021  0.4395208630955069  0.3840869428344542   T   T   T
  0.0003076997941468  0.2594750126931102  0.4193002695211004   T   T   T
  0.3336410331274826  0.2594750126931102  0.4193002695211004   T   T   T
  0.6669743664608113  0.2594750126931102  0.4193002695211004   T   T   T
  0.1677313896820093  0.5587437317529119  0.4430485301030636   T   T   T
  0.5010647230153450  0.5587437317529119  0.4430485301030636   T   T   T
  0.8343980563486807  0.5587437317529119  0.4430485301030636   T   T   T
  0.0001850898131828  0.2354829473363511  0.4641304357362502   T   T   T
  0.3335184231465186  0.2354829473363511  0.4641304357362502   T   T   T
  0.6668517564798468  0.2354829473363511  0.4641304357362502   T   T   T
  0.1666178454255423  0.9431735490876432  0.4396628167429370   T   T   T
  0.4999511787588782  0.9431735490876432  0.4396628167429370   T   T   T
  0.8332845120922141  0.9431735490876432  0.4396628167429370   T   T   T
  0.0051065151580037  0.1920694075745351  0.1233444707693553   T   T   T
 -0.0051065151580037  0.8079305924254644  0.4760040634326027   T   T   T
  0.3384398484913392  0.1920694075745351  0.1233444707693553   T   T   T
  0.6615601515086601  0.8079305924254644  0.4760040634326027   T   T   T
  0.6717731818246685  0.1920694075745351  0.1233444707693553   T   T   T
  0.3282268181753322  0.8079305924254644  0.4760040634326027   T   T   T
 
  0.00000000E+00  0.00000000E+00  0.00000000E+00
  0.00000000E+00  0.00000000E+00  0.00000000E+00
  0.00000000E+00  0.00000000E+00  0.00000000E+00
  0.00000000E+00  0.00000000E+00  0.00000000E+00
  0.00000000E+00  0.00000000E+00  0.00000000E+00
  0.00000000E+00  0.00000000E+00  0.00000000E+00
  0.00000000E+00  0.00000000E+00  0.00000000E+00
  0.00000000E+00  0.00000000E+00  0.00000000E+00
  0.00000000E+00  0.00000000E+00  0.00000000E+00
  0.00000000E+00  0.00000000E+00  0.00000000E+00
  0.00000000E+00  0.00000000E+00  0.00000000E+00
  0.00000000E+00  0.00000000E+00  0.00000000E+00
  0.00000000E+00  0.00000000E+00  0.00000000E+00
  0.00000000E+00  0.00000000E+00  0.00000000E+00
  0.00000000E+00  0.00000000E+00  0.00000000E+00
  0.00000000E+00  0.00000000E+00  0.00000000E+00
  0.00000000E+00  0.00000000E+00  0.00000000E+00
  0.00000000E+00  0.00000000E+00  0.00000000E+00
  0.00000000E+00  0.00000000E+00  0.00000000E+00
  0.00000000E+00  0.00000000E+00  0.00000000E+00
  0.00000000E+00  0.00000000E+00  0.00000000E+00
  0.00000000E+00  0.00000000E+00  0.00000000E+00
  0.00000000E+00  0.00000000E+00  0.00000000E+00
  0.00000000E+00  0.00000000E+00  0.00000000E+00
  0.00000000E+00  0.00000000E+00  0.00000000E+00
  0.00000000E+00  0.00000000E+00  0.00000000E+00
  0.00000000E+00  0.00000000E+00  0.00000000E+00
  0.00000000E+00  0.00000000E+00  0.00000000E+00
  0.00000000E+00  0.00000000E+00  0.00000000E+00
  0.00000000E+00  0.00000000E+00  0.00000000E+00
  0.00000000E+00  0.00000000E+00  0.00000000E+00
  0.00000000E+00  0.00000000E+00  0.00000000E+00
  0.00000000E+00  0.00000000E+00  0.00000000E+00
  0.00000000E+00  0.00000000E+00  0.00000000E+00
  0.00000000E+00  0.00000000E+00  0.00000000E+00
  0.00000000E+00  0.00000000E+00  0.00000000E+00
  0.00000000E+00  0.00000000E+00  0.00000000E+00
  0.00000000E+00  0.00000000E+00  0.00000000E+00
  0.00000000E+00  0.00000000E+00  0.00000000E+00
  0.00000000E+00  0.00000000E+00  0.00000000E+00
  0.00000000E+00  0.00000000E+00  0.00000000E+00
  0.00000000E+00  0.00000000E+00  0.00000000E+00
  0.00000000E+00  0.00000000E+00  0.00000000E+00
  0.00000000E+00  0.00000000E+00  0.00000000E+00
  0.00000000E+00  0.00000000E+00  0.00000000E+00
  0.00000000E+00  0.00000000E+00  0.00000000E+00
  0.00000000E+00  0.00000000E+00  0.00000000E+00
  0.00000000E+00  0.00000000E+00  0.00000000E+00
  0.00000000E+00  0.00000000E+00  0.00000000E+00
  0.00000000E+00  0.00000000E+00  0.00000000E+00
  0.00000000E+00  0.00000000E+00  0.00000000E+00
  0.00000000E+00  0.00000000E+00  0.00000000E+00
  0.00000000E+00  0.00000000E+00  0.00000000E+00
  0.00000000E+00  0.00000000E+00  0.00000000E+00
  0.00000000E+00  0.00000000E+00  0.00000000E+00
  0.00000000E+00  0.00000000E+00  0.00000000E+00
  0.00000000E+00  0.00000000E+00  0.00000000E+00
  0.00000000E+00  0.00000000E+00  0.00000000E+00
  0.00000000E+00  0.00000000E+00  0.00000000E+00
  0.00000000E+00  0.00000000E+00  0.00000000E+00
  0.00000000E+00  0.00000000E+00  0.00000000E+00
  0.00000000E+00  0.00000000E+00  0.00000000E+00
  0.00000000E+00  0.00000000E+00  0.00000000E+00
  0.00000000E+00  0.00000000E+00  0.00000000E+00
  0.00000000E+00  0.00000000E+00  0.00000000E+00
  0.00000000E+00  0.00000000E+00  0.00000000E+00
  0.00000000E+00  0.00000000E+00  0.00000000E+00
  0.00000000E+00  0.00000000E+00  0.00000000E+00
  0.00000000E+00  0.00000000E+00  0.00000000E+00
  0.00000000E+00  0.00000000E+00  0.00000000E+00
  0.00000000E+00  0.00000000E+00  0.00000000E+00
  0.00000000E+00  0.00000000E+00  0.00000000E+00
  0.00000000E+00  0.00000000E+00  0.00000000E+00
  0.00000000E+00  0.00000000E+00  0.00000000E+00
  0.00000000E+00  0.00000000E+00  0.00000000E+00
  0.00000000E+00  0.00000000E+00  0.00000000E+00
  0.00000000E+00  0.00000000E+00  0.00000000E+00
  0.00000000E+00  0.00000000E+00  0.00000000E+00
  0.00000000E+00  0.00000000E+00  0.00000000E+00
  0.00000000E+00  0.00000000E+00  0.00000000E+00
  0.00000000E+00  0.00000000E+00  0.00000000E+00
  0.00000000E+00  0.00000000E+00  0.00000000E+00
  0.00000000E+00  0.00000000E+00  0.00000000E+00
  0.00000000E+00  0.00000000E+00  0.00000000E+00
  0.00000000E+00  0.00000000E+00  0.00000000E+00
  0.00000000E+00  0.00000000E+00  0.00000000E+00
  0.00000000E+00  0.00000000E+00  0.00000000E+00
  0.00000000E+00  0.00000000E+00  0.00000000E+00
  0.00000000E+00  0.00000000E+00  0.00000000E+00
  0.00000000E+00  0.00000000E+00  0.00000000E+00
  0.00000000E+00  0.00000000E+00  0.00000000E+00
  0.00000000E+00  0.00000000E+00  0.00000000E+00
  0.00000000E+00  0.00000000E+00  0.00000000E+00
  0.00000000E+00  0.00000000E+00  0.00000000E+00
  0.00000000E+00  0.00000000E+00  0.00000000E+00
  0.00000000E+00  0.00000000E+00  0.00000000E+00
  0.00000000E+00  0.00000000E+00  0.00000000E+00
  0.00000000E+00  0.00000000E+00  0.00000000E+00
  0.00000000E+00  0.00000000E+00  0.00000000E+00
  0.00000000E+00  0.00000000E+00  0.00000000E+00
  0.00000000E+00  0.00000000E+00  0.00000000E+00
  0.00000000E+00  0.00000000E+00  0.00000000E+00
  0.00000000E+00  0.00000000E+00  0.00000000E+00
  0.00000000E+00  0.00000000E+00  0.00000000E+00
  0.00000000E+00  0.00000000E+00  0.00000000E+00
  0.00000000E+00  0.00000000E+00  0.00000000E+00
  0.00000000E+00  0.00000000E+00  0.00000000E+00
  0.00000000E+00  0.00000000E+00  0.00000000E+00
  0.00000000E+00  0.00000000E+00  0.00000000E+00
  0.00000000E+00  0.00000000E+00  0.00000000E+00
  0.00000000E+00  0.00000000E+00  0.00000000E+00
  0.00000000E+00  0.00000000E+00  0.00000000E+00
  0.00000000E+00  0.00000000E+00  0.00000000E+00
  0.00000000E+00  0.00000000E+00  0.00000000E+00
  0.00000000E+00  0.00000000E+00  0.00000000E+00
  0.00000000E+00  0.00000000E+00  0.00000000E+00
  0.00000000E+00  0.00000000E+00  0.00000000E+00
  0.00000000E+00  0.00000000E+00  0.00000000E+00
  0.00000000E+00  0.00000000E+00  0.00000000E+00
  0.00000000E+00  0.00000000E+00  0.00000000E+00
  0.00000000E+00  0.00000000E+00  0.00000000E+00
  0.00000000E+00  0.00000000E+00  0.00000000E+00
  0.00000000E+00  0.00000000E+00  0.00000000E+00
  0.00000000E+00  0.00000000E+00  0.00000000E+00
  0.00000000E+00  0.00000000E+00  0.00000000E+00
  0.00000000E+00  0.00000000E+00  0.00000000E+00
