Ir36 H6 O78                             
   1.00000000000000     
     9.5325385040720789    0.0000000000000000    0.0000000000000006
     0.0000000000000010    6.4022918038617691    0.0000000000000004
     0.0000000000000000    0.0000000000000000   56.6148967251015165
   H    Ir   O 
     6    36    78
Selective dynamics
Direct
  0.9114869098318540  0.2500000000000000  0.1173697476783473   T   T   T
  0.0885130901681459  0.7500000000000000  0.4819787865236110   T   T   T
  0.5781535764985255  0.2500000000000000  0.1173697476783473   T   T   T
  0.4218464235014745  0.7500000000000000  0.4819787865236110   T   T   T
  0.2448202431651899  0.2500000000000000  0.1173697476783473   T   T   T
  0.7551797568348103  0.7500000000000000  0.4819787865236110   T   T   T
  0.1652934730268571  0.7500000000000000  0.1579007667708767   T   T   T
  0.4986268063601930  0.7500000000000000  0.1579007667708767   T   T   T
  0.8319601396935286  0.7500000000000000  0.1579007667708767   T   T   T
 -0.0018720456595515  0.2500000000000000  0.1581721898768528   T   T   T
  0.3314612876737844  0.2500000000000000  0.1581721898768528   T   T   T
  0.6647946210071126  0.2500000000000000  0.1581721898768528   T   T   T
  0.1658434155450269  0.2500000000000000  0.2149334120520552   T   T   T
  0.4991767488783628  0.2500000000000000  0.2149334120520552   T   T   T
  0.8325100822116986  0.2500000000000000  0.2149334120520552   T   T   T
 -0.0007453636757961  0.7500000000000000  0.2146658926084929   T   T   T
  0.3325879696575395  0.7500000000000000  0.2146658926084929   T   T   T
  0.6659213029908678  0.7500000000000000  0.2146658926084929   T   T   T
  0.1666666666666643  0.7500000000000000  0.2714038392382250   F   F   F
  0.5000000000000000  0.7500000000000000  0.2714038392382250   F   F   F
  0.8333333333333357  0.7500000000000000  0.2714038392382250   F   F   F
  0.0000000000000000  0.2500000000000000  0.2714038392382250   F   F   F
  0.3333333333333357  0.2500000000000000  0.2714038392382250   F   F   F
  0.6666666666666643  0.2500000000000000  0.2714038392382250   F   F   F
  0.1666666666666643  0.2500000000000000  0.3279463057461882   F   F   F
  0.5000000000000000  0.2500000000000000  0.3279463057461882   F   F   F
  0.8333333333333357  0.2500000000000000  0.3279463057461882   F   F   F
  0.0000000000000000  0.7500000000000000  0.3279463057461882   F   F   F
  0.3333333333333357  0.7500000000000000  0.3279463057461882   F   F   F
  0.6666666666666643  0.7500000000000000  0.3279463057461882   F   F   F
  0.1674899177883017  0.7500000000000000  0.3844167329323576   T   T   T
  0.5008232511216373  0.7500000000000000  0.3844167329323576   T   T   T
  0.8341565844549728  0.7500000000000000  0.3844167329323576   T   T   T
  0.0007453636757961  0.2500000000000000  0.3846842523759205   T   T   T
  0.3340786970091319  0.2500000000000000  0.3846842523759205   T   T   T
  0.6674120303424608  0.2500000000000000  0.3846842523759205   T   T   T
  0.1680398603064715  0.2500000000000000  0.4414493782135367   T   T   T
  0.5013731936398071  0.2500000000000000  0.4414493782135367   T   T   T
  0.8347065269731428  0.2500000000000000  0.4414493782135367   T   T   T
  0.0018720456595515  0.7500000000000000  0.4411779551075601   T   T   T
  0.3352053789928870  0.7500000000000000  0.4411779551075601   T   T   T
  0.6685387123262160  0.7500000000000000  0.4411779551075601   T   T   T
 -0.0015327813973816  0.7500000000000000  0.1372968352273880   T   T   T
  0.3318005519359540  0.7500000000000000  0.1372968352273880   T   T   T
  0.6651338852692824  0.7500000000000000  0.1372968352273809   T   T   T
  0.1651830809433833  0.0583373690968934  0.1585390698048096   T   T   T
  0.4985164142767191  0.0583373690968934  0.1585390698048096   T   T   T
  0.8318497476100547  0.0583373690968934  0.1585390698048096   T   T   T
 -0.0013371436161689  0.7500000000000000  0.1798629084582606   T   T   T
  0.3319961897171668  0.7500000000000000  0.1798629084582606   T   T   T
  0.6653295230504951  0.7500000000000000  0.1798629084582606   T   T   T
  0.1651830809433834  0.4416626309031064  0.1585390698048096   T   T   T
  0.4985164142767191  0.4416626309031064  0.1585390698048096   T   T   T
  0.8318497476100547  0.4416626309031064  0.1585390698048096   T   T   T
 -0.0009575631143819  0.2500000000000000  0.1933367683100037   T   T   T
  0.3323757702189537  0.2500000000000000  0.1933367683100037   T   T   T
  0.6657091035522826  0.2500000000000000  0.1933367683100037   T   T   T
  0.1658239668455841  0.5586341251821783  0.2148457968889813   T   T   T
  0.4991573001789196  0.5586341251821783  0.2148457968889813   T   T   T
  0.8324906335122553  0.5586341251821783  0.2148457968889813   T   T   T
 -0.0006871640950610  0.2500000000000000  0.2365360442808256   T   T   T
  0.3326461692382748  0.2500000000000000  0.2365360442808256   T   T   T
  0.6659795025716037  0.2500000000000000  0.2365360442808256   T   T   T
  0.1658239668455841  0.9413658748178217  0.2148457968889813   T   T   T
  0.4991573001789196  0.9413658748178217  0.2148457968889813   T   T   T
  0.8324906335122553  0.9413658748178217  0.2148457968889813   T   T   T
  0.0000000000000000  0.7500000000000000  0.2497247611577791   F   F   F
  0.3333333333333357  0.7500000000000000  0.2497247611577791   F   F   F
  0.6666666666666643  0.7500000000000000  0.2497247611577791   F   F   F
  0.1666666666666643  0.0582938416084460  0.2714038392382250   F   F   F
  0.5000000000000000  0.0582938416084460  0.2714038392382250   F   F   F
  0.8333333333333357  0.0582938416084460  0.2714038392382250   F   F   F
  0.0000000000000000  0.7500000000000000  0.2930829173186780   F   F   F
  0.3333333333333357  0.7500000000000000  0.2930829173186780   F   F   F
  0.6666666666666643  0.7500000000000000  0.2930829173186780   F   F   F
  0.1666666666666643  0.4417061583915540  0.2714038392382250   F   F   F
  0.5000000000000000  0.4417061583915540  0.2714038392382250   F   F   F
  0.8333333333333357  0.4417061583915540  0.2714038392382250   F   F   F
  0.0000000000000000  0.2500000000000000  0.3062672276657423   F   F   F
  0.3333333333333357  0.2500000000000000  0.3062672276657423   F   F   F
  0.6666666666666643  0.2500000000000000  0.3062672276657423   F   F   F
  0.1666666666666643  0.5582938416084460  0.3279463057461882   F   F   F
  0.5000000000000000  0.5582938416084460  0.3279463057461882   F   F   F
  0.8333333333333357  0.5582938416084460  0.3279463057461882   F   F   F
  0.0000000000000000  0.2500000000000000  0.3496253838266412   F   F   F
  0.3333333333333357  0.2500000000000000  0.3496253838266412   F   F   F
  0.6666666666666643  0.2500000000000000  0.3496253838266412   F   F   F
  0.1666666666666643  0.9417061583915540  0.3279463057461882   F   F   F
  0.5000000000000000  0.9417061583915540  0.3279463057461882   F   F   F
  0.8333333333333357  0.9417061583915540  0.3279463057461882   F   F   F
  0.0006871640950610  0.7500000000000000  0.3628141007035949   T   T   T
  0.3340204974283966  0.7500000000000000  0.3628141007035949   T   T   T
  0.6673538307617249  0.7500000000000000  0.3628141007035949   T   T   T
  0.1675093664877445  0.0586341251821782  0.3845043480954318   T   T   T
  0.5008426998210803  0.0586341251821782  0.3845043480954318   T   T   T
  0.8341760331544161  0.0586341251821782  0.3845043480954318   T   T   T
  0.0009575631143819  0.7500000000000000  0.4060133766744168   T   T   T
  0.3342908964477177  0.7500000000000000  0.4060133766744169   T   T   T
  0.6676242297810460  0.7500000000000000  0.4060133766744169   T   T   T
  0.1675093664877445  0.4413658748178219  0.3845043480954318   T   T   T
  0.5008426998210803  0.4413658748178219  0.3845043480954318   T   T   T
  0.8341760331544161  0.4413658748178219  0.3845043480954318   T   T   T
  0.0013371436161689  0.2500000000000000  0.4194872365261595   T   T   T
  0.3346704769495046  0.2500000000000000  0.4194872365261595   T   T   T
  0.6680038102828335  0.2500000000000000  0.4194872365261595   T   T   T
  0.1681502523899452  0.5583373690968936  0.4408110751796039   T   T   T
  0.5014835857232812  0.5583373690968936  0.4408110751796039   T   T   T
  0.8348169190566167  0.5583373690968936  0.4408110751796039   T   T   T
  0.0015327813973816  0.2500000000000000  0.4620533097570326   T   T   T
  0.3348661147307174  0.2500000000000000  0.4620533097570326   T   T   T
  0.6681994480640462  0.2500000000000000  0.4620533097570326   T   T   T
  0.1681502523899452  0.9416626309031064  0.4408110751796039   T   T   T
  0.5014835857232812  0.9416626309031064  0.4408110751796039   T   T   T
  0.8348169190566167  0.9416626309031064  0.4408110751796039   T   T   T
  0.0065322972688911  0.2500000000000000  0.1240656260334597   T   T   T
 -0.0065322972688911  0.7500000000000000  0.4752829081684983   T   T   T
  0.3398656306022267  0.2500000000000000  0.1240656260334597   T   T   T
  0.6601343693977728  0.7500000000000000  0.4752829081684983   T   T   T
  0.6731989639355558  0.2500000000000000  0.1240656260334597   T   T   T
  0.3268010360644447  0.7500000000000000  0.4752829081684983   T   T   T
 
  0.00000000E+00  0.00000000E+00  0.00000000E+00
  0.00000000E+00  0.00000000E+00  0.00000000E+00
  0.00000000E+00  0.00000000E+00  0.00000000E+00
  0.00000000E+00  0.00000000E+00  0.00000000E+00
  0.00000000E+00  0.00000000E+00  0.00000000E+00
  0.00000000E+00  0.00000000E+00  0.00000000E+00
  0.00000000E+00  0.00000000E+00  0.00000000E+00
  0.00000000E+00  0.00000000E+00  0.00000000E+00
  0.00000000E+00  0.00000000E+00  0.00000000E+00
  0.00000000E+00  0.00000000E+00  0.00000000E+00
  0.00000000E+00  0.00000000E+00  0.00000000E+00
  0.00000000E+00  0.00000000E+00  0.00000000E+00
  0.00000000E+00  0.00000000E+00  0.00000000E+00
  0.00000000E+00  0.00000000E+00  0.00000000E+00
  0.00000000E+00  0.00000000E+00  0.00000000E+00
  0.00000000E+00  0.00000000E+00  0.00000000E+00
  0.00000000E+00  0.00000000E+00  0.00000000E+00
  0.00000000E+00  0.00000000E+00  0.00000000E+00
  0.00000000E+00  0.00000000E+00  0.00000000E+00
  0.00000000E+00  0.00000000E+00  0.00000000E+00
  0.00000000E+00  0.00000000E+00  0.00000000E+00
  0.00000000E+00  0.00000000E+00  0.00000000E+00
  0.00000000E+00  0.00000000E+00  0.00000000E+00
  0.00000000E+00  0.00000000E+00  0.00000000E+00
  0.00000000E+00  0.00000000E+00  0.00000000E+00
  0.00000000E+00  0.00000000E+00  0.00000000E+00
  0.00000000E+00  0.00000000E+00  0.00000000E+00
  0.00000000E+00  0.00000000E+00  0.00000000E+00
  0.00000000E+00  0.00000000E+00  0.00000000E+00
  0.00000000E+00  0.00000000E+00  0.00000000E+00
  0.00000000E+00  0.00000000E+00  0.00000000E+00
  0.00000000E+00  0.00000000E+00  0.00000000E+00
  0.00000000E+00  0.00000000E+00  0.00000000E+00
  0.00000000E+00  0.00000000E+00  0.00000000E+00
  0.00000000E+00  0.00000000E+00  0.00000000E+00
  0.00000000E+00  0.00000000E+00  0.00000000E+00
  0.00000000E+00  0.00000000E+00  0.00000000E+00
  0.00000000E+00  0.00000000E+00  0.00000000E+00
  0.00000000E+00  0.00000000E+00  0.00000000E+00
  0.00000000E+00  0.00000000E+00  0.00000000E+00
  0.00000000E+00  0.00000000E+00  0.00000000E+00
  0.00000000E+00  0.00000000E+00  0.00000000E+00
  0.00000000E+00  0.00000000E+00  0.00000000E+00
  0.00000000E+00  0.00000000E+00  0.00000000E+00
  0.00000000E+00  0.00000000E+00  0.00000000E+00
  0.00000000E+00  0.00000000E+00  0.00000000E+00
  0.00000000E+00  0.00000000E+00  0.00000000E+00
  0.00000000E+00  0.00000000E+00  0.00000000E+00
  0.00000000E+00  0.00000000E+00  0.00000000E+00
  0.00000000E+00  0.00000000E+00  0.00000000E+00
  0.00000000E+00  0.00000000E+00  0.00000000E+00
  0.00000000E+00  0.00000000E+00  0.00000000E+00
  0.00000000E+00  0.00000000E+00  0.00000000E+00
  0.00000000E+00  0.00000000E+00  0.00000000E+00
  0.00000000E+00  0.00000000E+00  0.00000000E+00
  0.00000000E+00  0.00000000E+00  0.00000000E+00
  0.00000000E+00  0.00000000E+00  0.00000000E+00
  0.00000000E+00  0.00000000E+00  0.00000000E+00
  0.00000000E+00  0.00000000E+00  0.00000000E+00
  0.00000000E+00  0.00000000E+00  0.00000000E+00
  0.00000000E+00  0.00000000E+00  0.00000000E+00
  0.00000000E+00  0.00000000E+00  0.00000000E+00
  0.00000000E+00  0.00000000E+00  0.00000000E+00
  0.00000000E+00  0.00000000E+00  0.00000000E+00
  0.00000000E+00  0.00000000E+00  0.00000000E+00
  0.00000000E+00  0.00000000E+00  0.00000000E+00
  0.00000000E+00  0.00000000E+00  0.00000000E+00
  0.00000000E+00  0.00000000E+00  0.00000000E+00
  0.00000000E+00  0.00000000E+00  0.00000000E+00
  0.00000000E+00  0.00000000E+00  0.00000000E+00
  0.00000000E+00  0.00000000E+00  0.00000000E+00
  0.00000000E+00  0.00000000E+00  0.00000000E+00
  0.00000000E+00  0.00000000E+00  0.00000000E+00
  0.00000000E+00  0.00000000E+00  0.00000000E+00
  0.00000000E+00  0.00000000E+00  0.00000000E+00
  0.00000000E+00  0.00000000E+00  0.00000000E+00
  0.00000000E+00  0.00000000E+00  0.00000000E+00
  0.00000000E+00  0.00000000E+00  0.00000000E+00
  0.00000000E+00  0.00000000E+00  0.00000000E+00
  0.00000000E+00  0.00000000E+00  0.00000000E+00
  0.00000000E+00  0.00000000E+00  0.00000000E+00
  0.00000000E+00  0.00000000E+00  0.00000000E+00
  0.00000000E+00  0.00000000E+00  0.00000000E+00
  0.00000000E+00  0.00000000E+00  0.00000000E+00
  0.00000000E+00  0.00000000E+00  0.00000000E+00
  0.00000000E+00  0.00000000E+00  0.00000000E+00
  0.00000000E+00  0.00000000E+00  0.00000000E+00
  0.00000000E+00  0.00000000E+00  0.00000000E+00
  0.00000000E+00  0.00000000E+00  0.00000000E+00
  0.00000000E+00  0.00000000E+00  0.00000000E+00
  0.00000000E+00  0.00000000E+00  0.00000000E+00
  0.00000000E+00  0.00000000E+00  0.00000000E+00
  0.00000000E+00  0.00000000E+00  0.00000000E+00
  0.00000000E+00  0.00000000E+00  0.00000000E+00
  0.00000000E+00  0.00000000E+00  0.00000000E+00
  0.00000000E+00  0.00000000E+00  0.00000000E+00
  0.00000000E+00  0.00000000E+00  0.00000000E+00
  0.00000000E+00  0.00000000E+00  0.00000000E+00
  0.00000000E+00  0.00000000E+00  0.00000000E+00
  0.00000000E+00  0.00000000E+00  0.00000000E+00
  0.00000000E+00  0.00000000E+00  0.00000000E+00
  0.00000000E+00  0.00000000E+00  0.00000000E+00
  0.00000000E+00  0.00000000E+00  0.00000000E+00
  0.00000000E+00  0.00000000E+00  0.00000000E+00
  0.00000000E+00  0.00000000E+00  0.00000000E+00
  0.00000000E+00  0.00000000E+00  0.00000000E+00
  0.00000000E+00  0.00000000E+00  0.00000000E+00
  0.00000000E+00  0.00000000E+00  0.00000000E+00
  0.00000000E+00  0.00000000E+00  0.00000000E+00
  0.00000000E+00  0.00000000E+00  0.00000000E+00
  0.00000000E+00  0.00000000E+00  0.00000000E+00
  0.00000000E+00  0.00000000E+00  0.00000000E+00
  0.00000000E+00  0.00000000E+00  0.00000000E+00
  0.00000000E+00  0.00000000E+00  0.00000000E+00
  0.00000000E+00  0.00000000E+00  0.00000000E+00
  0.00000000E+00  0.00000000E+00  0.00000000E+00
  0.00000000E+00  0.00000000E+00  0.00000000E+00
  0.00000000E+00  0.00000000E+00  0.00000000E+00
  0.00000000E+00  0.00000000E+00  0.00000000E+00
  0.00000000E+00  0.00000000E+00  0.00000000E+00
