Ir36 H18 O78                            
   1.00000000000000     
     9.5325385040720789    0.0000000000000000    0.0000000000000006
     0.0000000000000010    6.4022918038617691    0.0000000000000004
     0.0000000000000000    0.0000000000000000   56.6148967251015165
   H    Ir   O 
    18    36    78
Selective dynamics
Direct
  0.0058270051662390  0.5013070171668232  0.4771312612709906   T   T   T
  0.9941729948337610  0.4986929828331768  0.1222172729309676   T   T   T
  0.3391603384995676  0.5013070171668232  0.4771312612709906   T   T   T
  0.6608396615004324  0.4986929828331768  0.1222172729309676   T   T   T
  0.6724936718329033  0.5013070171668232  0.4771312612709906   T   T   T
  0.3275063281670967  0.4986929828331768  0.1222172729309676   T   T   T
  0.9998548893410657  0.8747748628537337  0.1248080408336065   T   T   T
  0.0001451106589343  0.1252251371462663  0.4745404933683517   T   T   T
  0.6665215560077300  0.8747748628537337  0.1248080408336065   T   T   T
  0.3334784439922700  0.1252251371462663  0.4745404933683517   T   T   T
  0.3331882226744014  0.8747748628537337  0.1248080408336065   T   T   T
  0.6668117773255986  0.1252251371462663  0.4745404933683517   T   T   T
  0.8978244008601237  0.3067318006860660  0.1155948885329607   T   T   T
  0.1021755991398763  0.6932681993139340  0.4837536456689975   T   T   T
  0.5644910675267951  0.3067318006860660  0.1155948885329607   T   T   T
  0.4355089324732049  0.6932681993139340  0.4837536456689975   T   T   T
  0.2311577341934594  0.3067318006860660  0.1155948885329607   T   T   T
  0.7688422658065406  0.6932681993139340  0.4837536456689975   T   T   T
  0.1658917558038340  0.7651531338302107  0.1585372837587329   T   T   T
  0.4992250891371697  0.7651531338302107  0.1585372837587329   T   T   T
  0.8325584224705054  0.7651531338302107  0.1585372837587329   T   T   T
  0.9988805681509945  0.2676217860367842  0.1586028887092681   T   T   T
  0.3322139014843302  0.2676217860367842  0.1586028887092681   T   T   T
  0.6655472348176588  0.2676217860367842  0.1586028887092681   T   T   T
  0.1666673905228464  0.2512286379011073  0.2146685564945656   T   T   T
  0.5000007238561821  0.2512286379011073  0.2146685564945656   T   T   T
  0.8333340571895178  0.2512286379011073  0.2146685564945656   T   T   T
  0.9998102878726343  0.7527666506393516  0.2149123977482930   T   T   T
  0.3331436212059700  0.7527666506393516  0.2149123977482930   T   T   T
  0.6664769545392986  0.7527666506393516  0.2149123977482930   T   T   T
  0.1666666666666643  0.7500000000000000  0.2714038392382250   F   F   F
  0.5000000000000000  0.7500000000000000  0.2714038392382250   F   F   F
  0.8333333333333357  0.7500000000000000  0.2714038392382250   F   F   F
  0.0000000000000000  0.2500000000000000  0.2714038392382250   F   F   F
  0.3333333333333357  0.2500000000000000  0.2714038392382250   F   F   F
  0.6666666666666643  0.2500000000000000  0.2714038392382250   F   F   F
  0.1666666666666643  0.2500000000000000  0.3279463057461882   F   F   F
  0.5000000000000000  0.2500000000000000  0.3279463057461882   F   F   F
  0.8333333333333357  0.2500000000000000  0.3279463057461882   F   F   F
  0.0000000000000000  0.7500000000000000  0.3279463057461882   F   F   F
  0.3333333333333357  0.7500000000000000  0.3279463057461882   F   F   F
  0.6666666666666643  0.7500000000000000  0.3279463057461882   F   F   F
  0.1666659428104822  0.7487713620988927  0.3846815884898547   T   T   T
  0.4999992761438179  0.7487713620988927  0.3846815884898547   T   T   T
  0.8333326094771536  0.7487713620988927  0.3846815884898547   T   T   T
  0.0001897121273657  0.2472333493606484  0.3844377472361202   T   T   T
  0.3335230454607014  0.2472333493606484  0.3844377472361202   T   T   T
  0.6668563787940300  0.2472333493606484  0.3844377472361202   T   T   T
  0.1674415775294946  0.2348468661697893  0.4408128612256803   T   T   T
  0.5007749108628303  0.2348468661697893  0.4408128612256803   T   T   T
  0.8341082441961660  0.2348468661697893  0.4408128612256803   T   T   T
  0.0011194318490055  0.7323782139632158  0.4407472562751451   T   T   T
  0.3344527651823412  0.7323782139632158  0.4407472562751451   T   T   T
  0.6677860985156698  0.7323782139632158  0.4407472562751451   T   T   T
  0.9992935926920268  0.7444531844981341  0.1337640279165484   T   T   T
  0.3326269260253625  0.7444531844981341  0.1337640279165484   T   T   T
  0.6659602593586911  0.7444531844981341  0.1337640279165413   T   T   T
  0.1656941272631727  0.0744021418663223  0.1544259770343217   T   T   T
  0.4990274605965084  0.0744021418663223  0.1544259770343217   T   T   T
  0.8323607939298441  0.0744021418663223  0.1544259770343217   T   T   T
  0.9993625824444194  0.7726342439009244  0.1799983590551975   T   T   T
  0.3326959157777551  0.7726342439009244  0.1799983590551975   T   T   T
  0.6660292491110908  0.7726342439009244  0.1799983590551975   T   T   T
  0.1656501945149387  0.4576882406131304  0.1591028960669760   T   T   T
  0.4989835278482744  0.4576882406131304  0.1591028960669760   T   T   T
  0.8323168611816101  0.4576882406131304  0.1591028960669760   T   T   T
  0.0000387164665909  0.2407835086028030  0.1929403367098956   T   T   T
  0.3333720497999266  0.2407835086028030  0.1929403367098956   T   T   T
  0.6667053831332552  0.2407835086028030  0.1929403367098956   T   T   T
  0.1665286903994954  0.5602686283172460  0.2142625617870522   T   T   T
  0.4998620237328311  0.5602686283172460  0.2142625617870522   T   T   T
  0.8331953570661668  0.5602686283172460  0.2142625617870522   T   T   T
  0.9999845240698875  0.2539638339059280  0.2364317817562451   T   T   T
  0.3333178574032232  0.2539638339059280  0.2364317817562451   T   T   T
  0.6666511907365518  0.2539638339059280  0.2364317817562451   T   T   T
  0.1665249502592800  0.9436849543985986  0.2153366977517592   T   T   T
  0.4998582835926157  0.9436849543985986  0.2153366977517592   T   T   T
  0.8331916169259515  0.9436849543985986  0.2153366977517592   T   T   T
  0.0000000000000000  0.7500000000000000  0.2497247611577791   F   F   F
  0.3333333333333357  0.7500000000000000  0.2497247611577791   F   F   F
  0.6666666666666643  0.7500000000000000  0.2497247611577791   F   F   F
  0.1666666666666643  0.0582938416084460  0.2714038392382250   F   F   F
  0.5000000000000000  0.0582938416084460  0.2714038392382250   F   F   F
  0.8333333333333357  0.0582938416084460  0.2714038392382250   F   F   F
  0.0000000000000000  0.7500000000000000  0.2930829173186780   F   F   F
  0.3333333333333357  0.7500000000000000  0.2930829173186780   F   F   F
  0.6666666666666643  0.7500000000000000  0.2930829173186780   F   F   F
  0.1666666666666643  0.4417061583915540  0.2714038392382250   F   F   F
  0.5000000000000000  0.4417061583915540  0.2714038392382250   F   F   F
  0.8333333333333357  0.4417061583915540  0.2714038392382250   F   F   F
  0.0000000000000000  0.2500000000000000  0.3062672276657423   F   F   F
  0.3333333333333357  0.2500000000000000  0.3062672276657423   F   F   F
  0.6666666666666643  0.2500000000000000  0.3062672276657423   F   F   F
  0.1666666666666643  0.5582938416084460  0.3279463057461882   F   F   F
  0.5000000000000000  0.5582938416084460  0.3279463057461882   F   F   F
  0.8333333333333357  0.5582938416084460  0.3279463057461882   F   F   F
  0.0000000000000000  0.2500000000000000  0.3496253838266412   F   F   F
  0.3333333333333357  0.2500000000000000  0.3496253838266412   F   F   F
  0.6666666666666643  0.2500000000000000  0.3496253838266412   F   F   F
  0.1666666666666643  0.9417061583915540  0.3279463057461882   F   F   F
  0.5000000000000000  0.9417061583915540  0.3279463057461882   F   F   F
  0.8333333333333357  0.9417061583915540  0.3279463057461882   F   F   F
  0.0000154759301125  0.7460361660940720  0.3629183632281752   T   T   T
  0.3333488092634482  0.7460361660940720  0.3629183632281752   T   T   T
  0.6666821425967768  0.7460361660940720  0.3629183632281752   T   T   T
  0.1668083830740485  0.0563150456013943  0.3840134472326540   T   T   T
  0.5001417164073843  0.0563150456013943  0.3840134472326540   T   T   T
  0.8334750497407200  0.0563150456013943  0.3840134472326540   T   T   T
  0.9999612835334091  0.7592164913972042  0.4064098082745247   T   T   T
  0.3332946168667448  0.7592164913972042  0.4064098082745247   T   T   T
  0.6666279502000734  0.7592164913972042  0.4064098082745247   T   T   T
  0.1668046429338332  0.4397313716827540  0.3850875831973610   T   T   T
  0.5001379762671689  0.4397313716827540  0.3850875831973610   T   T   T
  0.8334713096005046  0.4397313716827540  0.3850875831973610   T   T   T
  0.0006374175555806  0.2273657560990756  0.4193517859292228   T   T   T
  0.3339707508889163  0.2273657560990756  0.4193517859292228   T   T   T
  0.6673040842222377  0.2273657560990756  0.4193517859292228   T   T   T
  0.1676831388183899  0.5423117593868696  0.4402472489174372   T   T   T
  0.5010164721517256  0.5423117593868696  0.4402472489174372   T   T   T
  0.8343498054850613  0.5423117593868696  0.4402472489174372   T   T   T
  0.0007064073079732  0.2555468155018588  0.4655861170678719   T   T   T
  0.3340397406413089  0.2555468155018588  0.4655861170678719   T   T   T
  0.6673730739746375  0.2555468155018588  0.4655861170678719   T   T   T
  0.1676392060701559  0.9255978581336777  0.4449241679500915   T   T   T
  0.5009725394034916  0.9255978581336777  0.4449241679500915   T   T   T
  0.8343058727368273  0.9255978581336777  0.4449241679500915   T   T   T
  0.9946312958026411  0.3413995097888005  0.1200241552535175   T   T   T
  0.0053687041973589  0.6586004902111995  0.4793243789484407   T   T   T
  0.3279646291359768  0.3413995097888005  0.1200241552535175   T   T   T
  0.6720353708640232  0.6586004902111995  0.4793243789484407   T   T   T
  0.6612979624693054  0.3413995097888005  0.1200241552535175   T   T   T
  0.3387020375306946  0.6586004902111995  0.4793243789484407   T   T   T
 
  0.00000000E+00  0.00000000E+00  0.00000000E+00
  0.00000000E+00  0.00000000E+00  0.00000000E+00
  0.00000000E+00  0.00000000E+00  0.00000000E+00
  0.00000000E+00  0.00000000E+00  0.00000000E+00
  0.00000000E+00  0.00000000E+00  0.00000000E+00
  0.00000000E+00  0.00000000E+00  0.00000000E+00
  0.00000000E+00  0.00000000E+00  0.00000000E+00
  0.00000000E+00  0.00000000E+00  0.00000000E+00
  0.00000000E+00  0.00000000E+00  0.00000000E+00
  0.00000000E+00  0.00000000E+00  0.00000000E+00
  0.00000000E+00  0.00000000E+00  0.00000000E+00
  0.00000000E+00  0.00000000E+00  0.00000000E+00
  0.00000000E+00  0.00000000E+00  0.00000000E+00
  0.00000000E+00  0.00000000E+00  0.00000000E+00
  0.00000000E+00  0.00000000E+00  0.00000000E+00
  0.00000000E+00  0.00000000E+00  0.00000000E+00
  0.00000000E+00  0.00000000E+00  0.00000000E+00
  0.00000000E+00  0.00000000E+00  0.00000000E+00
  0.00000000E+00  0.00000000E+00  0.00000000E+00
  0.00000000E+00  0.00000000E+00  0.00000000E+00
  0.00000000E+00  0.00000000E+00  0.00000000E+00
  0.00000000E+00  0.00000000E+00  0.00000000E+00
  0.00000000E+00  0.00000000E+00  0.00000000E+00
  0.00000000E+00  0.00000000E+00  0.00000000E+00
  0.00000000E+00  0.00000000E+00  0.00000000E+00
  0.00000000E+00  0.00000000E+00  0.00000000E+00
  0.00000000E+00  0.00000000E+00  0.00000000E+00
  0.00000000E+00  0.00000000E+00  0.00000000E+00
  0.00000000E+00  0.00000000E+00  0.00000000E+00
  0.00000000E+00  0.00000000E+00  0.00000000E+00
  0.00000000E+00  0.00000000E+00  0.00000000E+00
  0.00000000E+00  0.00000000E+00  0.00000000E+00
  0.00000000E+00  0.00000000E+00  0.00000000E+00
  0.00000000E+00  0.00000000E+00  0.00000000E+00
  0.00000000E+00  0.00000000E+00  0.00000000E+00
  0.00000000E+00  0.00000000E+00  0.00000000E+00
  0.00000000E+00  0.00000000E+00  0.00000000E+00
  0.00000000E+00  0.00000000E+00  0.00000000E+00
  0.00000000E+00  0.00000000E+00  0.00000000E+00
  0.00000000E+00  0.00000000E+00  0.00000000E+00
  0.00000000E+00  0.00000000E+00  0.00000000E+00
  0.00000000E+00  0.00000000E+00  0.00000000E+00
  0.00000000E+00  0.00000000E+00  0.00000000E+00
  0.00000000E+00  0.00000000E+00  0.00000000E+00
  0.00000000E+00  0.00000000E+00  0.00000000E+00
  0.00000000E+00  0.00000000E+00  0.00000000E+00
  0.00000000E+00  0.00000000E+00  0.00000000E+00
  0.00000000E+00  0.00000000E+00  0.00000000E+00
  0.00000000E+00  0.00000000E+00  0.00000000E+00
  0.00000000E+00  0.00000000E+00  0.00000000E+00
  0.00000000E+00  0.00000000E+00  0.00000000E+00
  0.00000000E+00  0.00000000E+00  0.00000000E+00
  0.00000000E+00  0.00000000E+00  0.00000000E+00
  0.00000000E+00  0.00000000E+00  0.00000000E+00
  0.00000000E+00  0.00000000E+00  0.00000000E+00
  0.00000000E+00  0.00000000E+00  0.00000000E+00
  0.00000000E+00  0.00000000E+00  0.00000000E+00
  0.00000000E+00  0.00000000E+00  0.00000000E+00
  0.00000000E+00  0.00000000E+00  0.00000000E+00
  0.00000000E+00  0.00000000E+00  0.00000000E+00
  0.00000000E+00  0.00000000E+00  0.00000000E+00
  0.00000000E+00  0.00000000E+00  0.00000000E+00
  0.00000000E+00  0.00000000E+00  0.00000000E+00
  0.00000000E+00  0.00000000E+00  0.00000000E+00
  0.00000000E+00  0.00000000E+00  0.00000000E+00
  0.00000000E+00  0.00000000E+00  0.00000000E+00
  0.00000000E+00  0.00000000E+00  0.00000000E+00
  0.00000000E+00  0.00000000E+00  0.00000000E+00
  0.00000000E+00  0.00000000E+00  0.00000000E+00
  0.00000000E+00  0.00000000E+00  0.00000000E+00
  0.00000000E+00  0.00000000E+00  0.00000000E+00
  0.00000000E+00  0.00000000E+00  0.00000000E+00
  0.00000000E+00  0.00000000E+00  0.00000000E+00
  0.00000000E+00  0.00000000E+00  0.00000000E+00
  0.00000000E+00  0.00000000E+00  0.00000000E+00
  0.00000000E+00  0.00000000E+00  0.00000000E+00
  0.00000000E+00  0.00000000E+00  0.00000000E+00
  0.00000000E+00  0.00000000E+00  0.00000000E+00
  0.00000000E+00  0.00000000E+00  0.00000000E+00
  0.00000000E+00  0.00000000E+00  0.00000000E+00
  0.00000000E+00  0.00000000E+00  0.00000000E+00
  0.00000000E+00  0.00000000E+00  0.00000000E+00
  0.00000000E+00  0.00000000E+00  0.00000000E+00
  0.00000000E+00  0.00000000E+00  0.00000000E+00
  0.00000000E+00  0.00000000E+00  0.00000000E+00
  0.00000000E+00  0.00000000E+00  0.00000000E+00
  0.00000000E+00  0.00000000E+00  0.00000000E+00
  0.00000000E+00  0.00000000E+00  0.00000000E+00
  0.00000000E+00  0.00000000E+00  0.00000000E+00
  0.00000000E+00  0.00000000E+00  0.00000000E+00
  0.00000000E+00  0.00000000E+00  0.00000000E+00
  0.00000000E+00  0.00000000E+00  0.00000000E+00
  0.00000000E+00  0.00000000E+00  0.00000000E+00
  0.00000000E+00  0.00000000E+00  0.00000000E+00
  0.00000000E+00  0.00000000E+00  0.00000000E+00
  0.00000000E+00  0.00000000E+00  0.00000000E+00
  0.00000000E+00  0.00000000E+00  0.00000000E+00
  0.00000000E+00  0.00000000E+00  0.00000000E+00
  0.00000000E+00  0.00000000E+00  0.00000000E+00
  0.00000000E+00  0.00000000E+00  0.00000000E+00
  0.00000000E+00  0.00000000E+00  0.00000000E+00
  0.00000000E+00  0.00000000E+00  0.00000000E+00
  0.00000000E+00  0.00000000E+00  0.00000000E+00
  0.00000000E+00  0.00000000E+00  0.00000000E+00
  0.00000000E+00  0.00000000E+00  0.00000000E+00
  0.00000000E+00  0.00000000E+00  0.00000000E+00
  0.00000000E+00  0.00000000E+00  0.00000000E+00
  0.00000000E+00  0.00000000E+00  0.00000000E+00
  0.00000000E+00  0.00000000E+00  0.00000000E+00
  0.00000000E+00  0.00000000E+00  0.00000000E+00
  0.00000000E+00  0.00000000E+00  0.00000000E+00
  0.00000000E+00  0.00000000E+00  0.00000000E+00
  0.00000000E+00  0.00000000E+00  0.00000000E+00
  0.00000000E+00  0.00000000E+00  0.00000000E+00
  0.00000000E+00  0.00000000E+00  0.00000000E+00
  0.00000000E+00  0.00000000E+00  0.00000000E+00
  0.00000000E+00  0.00000000E+00  0.00000000E+00
  0.00000000E+00  0.00000000E+00  0.00000000E+00
  0.00000000E+00  0.00000000E+00  0.00000000E+00
  0.00000000E+00  0.00000000E+00  0.00000000E+00
  0.00000000E+00  0.00000000E+00  0.00000000E+00
  0.00000000E+00  0.00000000E+00  0.00000000E+00
  0.00000000E+00  0.00000000E+00  0.00000000E+00
  0.00000000E+00  0.00000000E+00  0.00000000E+00
  0.00000000E+00  0.00000000E+00  0.00000000E+00
  0.00000000E+00  0.00000000E+00  0.00000000E+00
  0.00000000E+00  0.00000000E+00  0.00000000E+00
  0.00000000E+00  0.00000000E+00  0.00000000E+00
  0.00000000E+00  0.00000000E+00  0.00000000E+00
  0.00000000E+00  0.00000000E+00  0.00000000E+00
  0.00000000E+00  0.00000000E+00  0.00000000E+00
  0.00000000E+00  0.00000000E+00  0.00000000E+00
