Ir36 H12 O78
1.0
   9.5325385040720789    0.0000000000000000    0.0000000000000006
   0.0000000000000010    6.4022918038617691    0.0000000000000004
   0.0000000000000000    0.0000000000000000   56.6148967251015165
H Ir O
12 36 78
Selective Dynamics
direct
 -0.0001451106589333  0.8747748628537337  0.1248080408336087   T   T   T
  0.0001451106589333  0.1252251371462665  0.4745404933683496   T   T   T
  0.6665215560077311  0.8747748628537337  0.1248080408336087   T   T   T
  0.3334784439922689  0.1252251371462665  0.4745404933683496   T   T   T
  0.3331882226744025  0.8747748628537337  0.1248080408336087   T   T   T
  0.6668117773255975  0.1252251371462665  0.4745404933683496   T   T   T
-0.0937523881915727 -0.7499999999999997 0.1229909040536408 T T T H
0.0937523881915727 0.7499999999999997 0.4763576301483136 T T T H
-0.4270857215249061 -0.7499999999999997 0.1229909040536408 T T T H
0.4270857215249061 0.7499999999999997 0.4763576301483136 T T T H
-0.7604190548582394 -0.7499999999999997 0.1229909040536408 T T T H
0.7604190548582394 0.7499999999999997 0.4763576301483136 T T T H
0.1666666666666668 0.7500000000000000 0.1583189062222988 T T T Ir
0.4999999999999999 0.7500000000000001 0.1583189062222988 T T T Ir
0.8333333333333333 0.7500000000000001 0.1583189062222988 T T T Ir
0.0000000000000001 0.2499999999999998 0.1583189062222988 T T T Ir
0.3333333333333334 0.2499999999999998 0.1583189062222988 T T T Ir
0.6666666666666667 0.2499999999999998 0.1583189062222988 T T T Ir
0.1666666666666668 0.2499999999999998 0.2148613727302628 T T T Ir
0.4999999999999998 0.2499999999999998 0.2148613727302625 T T T Ir
0.8333333333333334 0.2499999999999998 0.2148613727302625 T T T Ir
0.0000000000000001 0.7499999999999998 0.2148613727302628 T T T Ir
0.3333333333333334 0.7499999999999998 0.2148613727302628 T T T Ir
0.6666666666666667 0.7499999999999998 0.2148613727302625 T T T Ir
0.1666666666666669 0.7499999999999998 0.2714038392382264 F F F Ir
0.5000000000000000 0.7500000000000002 0.2714038392382264 F F F Ir
0.8333333333333334 0.7500000000000002 0.2714038392382264 F F F Ir
0.0000000000000002 0.2499999999999998 0.2714038392382265 F F F Ir
0.3333333333333335 0.2500000000000000 0.2714038392382264 F F F Ir
0.6666666666666669 0.2500000000000000 0.2714038392382264 F F F Ir
0.1666666666666669 0.2499999999999989 0.3279463057461903 F F F Ir
0.5000000000000001 0.2500000000000000 0.3279463057461903 F F F Ir
0.8333333333333335 0.2500000000000000 0.3279463057461903 F F F Ir
0.0000000000000002 0.7499999999999996 0.3279463057461903 F F F Ir
0.3333333333333335 0.7499999999999996 0.3279463057461903 F F F Ir
0.6666666666666669 0.7499999999999996 0.3279463057461903 F F F Ir
0.1666666666666670 0.7499999999999996 0.3844887722541541 T T T Ir
0.4999999999999997 0.7499999999999996 0.3844887722541541 T T T Ir
0.8333333333333334 0.7499999999999996 0.3844887722541541 T T T Ir
0.0000000000000003 0.2499999999999987 0.3844887722541541 T T T Ir
0.3333333333333336 0.2499999999999987 0.3844887722541541 T T T Ir
0.6666666666666670 0.2499999999999987 0.3844887722541541 T T T Ir
0.1666666666666670 0.2499999999999987 0.4410312387621179 T T T Ir
0.5000000000000002 0.2499999999999987 0.4410312387621180 T T T Ir
0.8333333333333336 0.2499999999999987 0.4410312387621180 T T T Ir
0.0000000000000003 0.7499999999999996 0.4410312387621179 T T T Ir
0.3333333333333336 0.7499999999999996 0.4410312387621179 T T T Ir
0.6666666666666670 0.7499999999999996 0.4410312387621180 T T T Ir
0.0000000000000001 0.7500000000000000 0.1366398281418492 T T T O
0.3333333333333334 0.7500000000000001 0.1366398281418492 T T T O
0.6666666666666666 0.7500000000000000 0.1366398281418490 T T T O
0.1666666666666667 0.0582938416084460 0.1583189062222988 T T T O
0.5000000000000000 0.0582938416084461 0.1583189062222988 T T T O
0.8333333333333334 0.0582938416084461 0.1583189062222986 T T T O
0.0000000000000001 0.7500000000000002 0.1799979843027485 T T T O
0.3333333333333334 0.7500000000000002 0.1799979843027485 T T T O
0.6666666666666666 0.7500000000000002 0.1799979843027485 T T T O
0.1666666666666667 0.4417061583915541 0.1583189062222988 T T T O
0.5000000000000001 0.4417061583915539 0.1583189062222988 T T T O
0.8333333333333334 0.4417061583915541 0.1583189062222988 T T T O
0.0000000000000001 0.2499999999999998 0.1931822946498130 T T T O
0.3333333333333334 0.2499999999999998 0.1931822946498131 T T T O
0.6666666666666667 0.2500000000000002 0.1931822946498130 T T T O
0.1666666666666668 0.5582938416084460 0.2148613727302625 T T T O
0.5000000000000001 0.5582938416084460 0.2148613727302625 T T T O
0.8333333333333335 0.5582938416084460 0.2148613727302625 T T T O
0.0000000000000002 0.2500000000000002 0.2365404508107124 T T T O
0.3333333333333334 0.2500000000000002 0.2365404508107124 T T T O
0.6666666666666667 0.2500000000000002 0.2365404508107124 T T T O
0.1666666666666668 0.9417061583915542 0.2148613727302625 T T T O
0.5000000000000001 0.9417061583915542 0.2148613727302625 T T T O
0.8333333333333334 0.9417061583915540 0.2148613727302625 T T T O
0.0000000000000002 0.7500000000000000 0.2497247611577768 F F F O
0.3333333333333334 0.7499999999999998 0.2497247611577768 F F F O
0.6666666666666667 0.7500000000000000 0.2497247611577768 F F F O
0.1666666666666669 0.0582938416084461 0.2714038392382264 F F F O
0.5000000000000001 0.0582938416084460 0.2714038392382265 F F F O
0.8333333333333335 0.0582938416084460 0.2714038392382265 F F F O
0.0000000000000002 0.7499999999999998 0.2930829173186763 F F F O
0.3333333333333334 0.7499999999999998 0.2930829173186763 F F F O
0.6666666666666669 0.7500000000000002 0.2930829173186760 F F F O
0.1666666666666668 0.4417061583915538 0.2714038392382265 F F F O
0.4999999999999999 0.4417061583915538 0.2714038392382264 F F F O
0.8333333333333333 0.4417061583915538 0.2714038392382264 F F F O
0.0000000000000002 0.2500000000000000 0.3062672276657403 F F F O
0.3333333333333335 0.2500000000000000 0.3062672276657403 F F F O
0.6666666666666669 0.2500000000000000 0.3062672276657403 F F F O
0.1666666666666669 0.5582938416084455 0.3279463057461903 F F F O
0.4999999999999999 0.5582938416084462 0.3279463057461903 F F F O
0.8333333333333333 0.5582938416084462 0.3279463057461903 F F F O
0.0000000000000003 0.2500000000000000 0.3496253838266399 F F F O
0.3333333333333335 0.2500000000000000 0.3496253838266399 F F F O
0.6666666666666669 0.2500000000000000 0.3496253838266399 F F F O
0.1666666666666669 0.9417061583915536 0.3279463057461903 F F F O
0.5000000000000002 0.9417061583915536 0.3279463057461903 F F F O
0.8333333333333335 0.9417061583915536 0.3279463057461903 F F F O
0.0000000000000003 0.7500000000000004 0.3628096941737044 T T T O
0.3333333333333335 0.7499999999999996 0.3628096941737044 T T T O
0.6666666666666669 0.7500000000000004 0.3628096941737041 T T T O
0.1666666666666670 0.0582938416084462 0.3844887722541541 T T T O
0.5000000000000002 0.0582938416084462 0.3844887722541541 T T T O
0.8333333333333336 0.0582938416084462 0.3844887722541541 T T T O
0.0000000000000003 0.7499999999999996 0.4061678503346036 T T T O
0.3333333333333335 0.7499999999999996 0.4061678503346038 T T T O
0.6666666666666669 0.7499999999999996 0.4061678503346038 T T T O
0.1666666666666669 0.4417061583915536 0.3844887722541541 T T T O
0.5000000000000003 0.4417061583915536 0.3844887722541541 T T T O
0.8333333333333334 0.4417061583915536 0.3844887722541541 T T T O
0.0000000000000003 0.2499999999999987 0.4193521606816684 T T T O
0.3333333333333336 0.2500000000000004 0.4193521606816684 T T T O
0.6666666666666670 0.2500000000000004 0.4193521606816682 T T T O
0.1666666666666670 0.5582938416084460 0.4410312387621180 T T T O
0.5000000000000003 0.5582938416084460 0.4410312387621180 T T T O
0.8333333333333334 0.5582938416084460 0.4410312387621180 T T T O
0.0000000000000004 0.2500000000000009 0.4627103168425676 T T T O
0.3333333333333336 0.2500000000000009 0.4627103168425676 T T T O
0.6666666666666670 0.2500000000000004 0.4627103168425676 T T T O
0.1666666666666670 0.9417061583915545 0.4410312387621179 T T T O
0.5000000000000006 0.9417061583915540 0.4410312387621180 T T T O
0.8333333333333336 0.9417061583915540 0.4410312387621180 T T T O
0.0000000000000000 -0.7499999999999997 0.1229909040536408 T T T O
-0.0000000000000000 0.7499999999999997 0.4763576301483136 T T T O
0.3333333333333336 -0.7499999999999997 0.1229909040536408 T T T O
-0.3333333333333336 0.7499999999999997 0.4763576301483136 T T T O
0.6666666666666669 -0.7499999999999997 0.1229909040536408 T T T O
-0.6666666666666669 0.7499999999999997 0.4763576301483136 T T T O
