Ir36 O78                                
   1.00000000000000     
     9.5325385040720789    0.0000000000000000    0.0000000000000006
     0.0000000000000010    6.4022918038617691    0.0000000000000004
     0.0000000000000000    0.0000000000000000   56.6148967251015165
   Ir   O 
    36    78
Selective dynamics
Direct
  0.1666666666666643  0.7500000000000000  0.1580089993137449   T   T   T
  0.5000000000000000  0.7500000000000000  0.1580089993137449   T   T   T
  0.8333333333333357  0.7500000000000000  0.1580089993137449   T   T   T
  0.0000000000000000  0.2500000000000000  0.1563980421646619   T   T   T
  0.3333333333333357  0.2500000000000000  0.1563980421646619   T   T   T
  0.6666666666666643  0.2500000000000000  0.1563980421646619   T   T   T
  0.1666666666666643  0.2500000000000000  0.2146654070989903   T   T   T
  0.5000000000000000  0.2500000000000000  0.2146654070989903   T   T   T
  0.8333333333333357  0.2500000000000000  0.2146654070989903   T   T   T
 -0.0000000000000000  0.7500000000000000  0.2146301930176510   T   T   T
  0.3333333333333357  0.7500000000000000  0.2146301930176510   T   T   T
  0.6666666666666643  0.7500000000000000  0.2146301930176510   T   T   T
  0.1666666666666643  0.7500000000000000  0.2714038392382250   F   F   F
  0.5000000000000000  0.7500000000000000  0.2714038392382250   F   F   F
  0.8333333333333357  0.7500000000000000  0.2714038392382250   F   F   F
  0.0000000000000000  0.2500000000000000  0.2714038392382250   F   F   F
  0.3333333333333357  0.2500000000000000  0.2714038392382250   F   F   F
  0.6666666666666643  0.2500000000000000  0.2714038392382250   F   F   F
  0.1666666666666643  0.2500000000000000  0.3279463057461882   F   F   F
  0.5000000000000000  0.2500000000000000  0.3279463057461882   F   F   F
  0.8333333333333357  0.2500000000000000  0.3279463057461882   F   F   F
  0.0000000000000000  0.7500000000000000  0.3279463057461882   F   F   F
  0.3333333333333357  0.7500000000000000  0.3279463057461882   F   F   F
  0.6666666666666643  0.7500000000000000  0.3279463057461882   F   F   F
  0.1666666666666643  0.7500000000000000  0.3846847378854231   T   T   T
  0.5000000000000000  0.7500000000000000  0.3846847378854231   T   T   T
  0.8333333333333357  0.7500000000000000  0.3846847378854231   T   T   T
 -0.0000000000000000  0.2500000000000000  0.3847199519667621   T   T   T
  0.3333333333333357  0.2500000000000000  0.3847199519667621   T   T   T
  0.6666666666666643  0.2500000000000000  0.3847199519667621   T   T   T
  0.1666666666666643  0.2500000000000000  0.4413411456706683   T   T   T
  0.5000000000000000  0.2500000000000000  0.4413411456706683   T   T   T
  0.8333333333333357  0.2500000000000000  0.4413411456706683   T   T   T
  0.0000000000000000  0.7500000000000000  0.4429521028197512   T   T   T
  0.3333333333333357  0.7500000000000000  0.4429521028197512   T   T   T
  0.6666666666666643  0.7500000000000000  0.4429521028197512   T   T   T
  0.0000000000000000  0.7500000000000000  0.1374363300465814   T   T   T
  0.3333333333333357  0.7500000000000000  0.1374363300465814   T   T   T
  0.6666666666666643  0.7500000000000000  0.1374363300465743   T   T   T
  0.1666666666666643  0.0591112570506309  0.1587039041204945   T   T   T
  0.5000000000000000  0.0591112570506309  0.1587039041204945   T   T   T
  0.8333333333333357  0.0591112570506309  0.1587039041204945   T   T   T
 -0.0000000000000000  0.7500000000000000  0.1799330771645040   T   T   T
  0.3333333333333357  0.7500000000000000  0.1799330771645040   T   T   T
  0.6666666666666643  0.7500000000000000  0.1799330771645040   T   T   T
  0.1666666666666643  0.4408887429493691  0.1587039041204945   T   T   T
  0.5000000000000000  0.4408887429493691  0.1587039041204945   T   T   T
  0.8333333333333357  0.4408887429493691  0.1587039041204945   T   T   T
  0.0000000000000000  0.2500000000000000  0.1928363076061299   T   T   T
  0.3333333333333357  0.2500000000000000  0.1928363076061299   T   T   T
  0.6666666666666643  0.2500000000000000  0.1928363076061299   T   T   T
  0.1666666666666643  0.5579596742821396  0.2147415355085519   T   T   T
  0.5000000000000000  0.5579596742821396  0.2147415355085519   T   T   T
  0.8333333333333357  0.5579596742821396  0.2147415355085519   T   T   T
 -0.0000000000000000  0.2500000000000000  0.2364396608757010   T   T   T
  0.3333333333333357  0.2500000000000000  0.2364396608757010   T   T   T
  0.6666666666666643  0.2500000000000000  0.2364396608757010   T   T   T
  0.1666666666666643  0.9420403257178604  0.2147415355085519   T   T   T
  0.5000000000000000  0.9420403257178604  0.2147415355085519   T   T   T
  0.8333333333333357  0.9420403257178604  0.2147415355085519   T   T   T
  0.0000000000000000  0.7500000000000000  0.2497247611577791   F   F   F
  0.3333333333333357  0.7500000000000000  0.2497247611577791   F   F   F
  0.6666666666666643  0.7500000000000000  0.2497247611577791   F   F   F
  0.1666666666666643  0.0582938416084460  0.2714038392382250   F   F   F
  0.5000000000000000  0.0582938416084460  0.2714038392382250   F   F   F
  0.8333333333333357  0.0582938416084460  0.2714038392382250   F   F   F
  0.0000000000000000  0.7500000000000000  0.2930829173186780   F   F   F
  0.3333333333333357  0.7500000000000000  0.2930829173186780   F   F   F
  0.6666666666666643  0.7500000000000000  0.2930829173186780   F   F   F
  0.1666666666666643  0.4417061583915540  0.2714038392382250   F   F   F
  0.5000000000000000  0.4417061583915540  0.2714038392382250   F   F   F
  0.8333333333333357  0.4417061583915540  0.2714038392382250   F   F   F
  0.0000000000000000  0.2500000000000000  0.3062672276657423   F   F   F
  0.3333333333333357  0.2500000000000000  0.3062672276657423   F   F   F
  0.6666666666666643  0.2500000000000000  0.3062672276657423   F   F   F
  0.1666666666666643  0.5582938416084460  0.3279463057461882   F   F   F
  0.5000000000000000  0.5582938416084460  0.3279463057461882   F   F   F
  0.8333333333333357  0.5582938416084460  0.3279463057461882   F   F   F
  0.0000000000000000  0.2500000000000000  0.3496253838266412   F   F   F
  0.3333333333333357  0.2500000000000000  0.3496253838266412   F   F   F
  0.6666666666666643  0.2500000000000000  0.3496253838266412   F   F   F
  0.1666666666666643  0.9417061583915540  0.3279463057461882   F   F   F
  0.5000000000000000  0.9417061583915540  0.3279463057461882   F   F   F
  0.8333333333333357  0.9417061583915540  0.3279463057461882   F   F   F
 -0.0000000000000000  0.7500000000000000  0.3629104841087193   T   T   T
  0.3333333333333357  0.7500000000000000  0.3629104841087193   T   T   T
  0.6666666666666643  0.7500000000000000  0.3629104841087193   T   T   T
  0.1666666666666643  0.0579596742821394  0.3846086094758615   T   T   T
  0.5000000000000000  0.0579596742821394  0.3846086094758615   T   T   T
  0.8333333333333357  0.0579596742821394  0.3846086094758615   T   T   T
  0.0000000000000000  0.7500000000000000  0.4065138373782903   T   T   T
  0.3333333333333357  0.7500000000000000  0.4065138373782903   T   T   T
  0.6666666666666643  0.7500000000000000  0.4065138373782903   T   T   T
  0.1666666666666643  0.4420403257178604  0.3846086094758615   T   T   T
  0.5000000000000000  0.4420403257178604  0.3846086094758615   T   T   T
  0.8333333333333357  0.4420403257178604  0.3846086094758615   T   T   T
  0.0000000000000000  0.2500000000000000  0.4194170678199163   T   T   T
  0.3333333333333357  0.2500000000000000  0.4194170678199163   T   T   T
  0.6666666666666643  0.2500000000000000  0.4194170678199163   T   T   T
  0.1666666666666643  0.5591112570506306  0.4406462408639188   T   T   T
  0.5000000000000000  0.5591112570506306  0.4406462408639188   T   T   T
  0.8333333333333357  0.5591112570506306  0.4406462408639188   T   T   T
 -0.0000000000000000  0.2500000000000000  0.4619138149378388   T   T   T
  0.3333333333333357  0.2500000000000000  0.4619138149378388   T   T   T
  0.6666666666666643  0.2500000000000000  0.4619138149378388   T   T   T
  0.1666666666666643  0.9408887429493694  0.4406462408639188   T   T   T
  0.5000000000000000  0.9408887429493694  0.4406462408639188   T   T   T
  0.8333333333333357  0.9408887429493694  0.4406462408639188   T   T   T
 -0.0000000000000000  0.2500000000000000  0.1250763344633679   T   T   T
  0.0000000000000000  0.7500000000000000  0.4742721997385904   T   T   T
  0.3333333333333357  0.2500000000000000  0.1250763344633679   T   T   T
  0.6666666666666643  0.7500000000000000  0.4742721997385904   T   T   T
  0.6666666666666643  0.2500000000000000  0.1250763344633679   T   T   T
  0.3333333333333357  0.7500000000000000  0.4742721997385904   T   T   T
 
  0.00000000E+00  0.00000000E+00  0.00000000E+00
  0.00000000E+00  0.00000000E+00  0.00000000E+00
  0.00000000E+00  0.00000000E+00  0.00000000E+00
  0.00000000E+00  0.00000000E+00  0.00000000E+00
  0.00000000E+00  0.00000000E+00  0.00000000E+00
  0.00000000E+00  0.00000000E+00  0.00000000E+00
  0.00000000E+00  0.00000000E+00  0.00000000E+00
  0.00000000E+00  0.00000000E+00  0.00000000E+00
  0.00000000E+00  0.00000000E+00  0.00000000E+00
  0.00000000E+00  0.00000000E+00  0.00000000E+00
  0.00000000E+00  0.00000000E+00  0.00000000E+00
  0.00000000E+00  0.00000000E+00  0.00000000E+00
  0.00000000E+00  0.00000000E+00  0.00000000E+00
  0.00000000E+00  0.00000000E+00  0.00000000E+00
  0.00000000E+00  0.00000000E+00  0.00000000E+00
  0.00000000E+00  0.00000000E+00  0.00000000E+00
  0.00000000E+00  0.00000000E+00  0.00000000E+00
  0.00000000E+00  0.00000000E+00  0.00000000E+00
  0.00000000E+00  0.00000000E+00  0.00000000E+00
  0.00000000E+00  0.00000000E+00  0.00000000E+00
  0.00000000E+00  0.00000000E+00  0.00000000E+00
  0.00000000E+00  0.00000000E+00  0.00000000E+00
  0.00000000E+00  0.00000000E+00  0.00000000E+00
  0.00000000E+00  0.00000000E+00  0.00000000E+00
  0.00000000E+00  0.00000000E+00  0.00000000E+00
  0.00000000E+00  0.00000000E+00  0.00000000E+00
  0.00000000E+00  0.00000000E+00  0.00000000E+00
  0.00000000E+00  0.00000000E+00  0.00000000E+00
  0.00000000E+00  0.00000000E+00  0.00000000E+00
  0.00000000E+00  0.00000000E+00  0.00000000E+00
  0.00000000E+00  0.00000000E+00  0.00000000E+00
  0.00000000E+00  0.00000000E+00  0.00000000E+00
  0.00000000E+00  0.00000000E+00  0.00000000E+00
  0.00000000E+00  0.00000000E+00  0.00000000E+00
  0.00000000E+00  0.00000000E+00  0.00000000E+00
  0.00000000E+00  0.00000000E+00  0.00000000E+00
  0.00000000E+00  0.00000000E+00  0.00000000E+00
  0.00000000E+00  0.00000000E+00  0.00000000E+00
  0.00000000E+00  0.00000000E+00  0.00000000E+00
  0.00000000E+00  0.00000000E+00  0.00000000E+00
  0.00000000E+00  0.00000000E+00  0.00000000E+00
  0.00000000E+00  0.00000000E+00  0.00000000E+00
  0.00000000E+00  0.00000000E+00  0.00000000E+00
  0.00000000E+00  0.00000000E+00  0.00000000E+00
  0.00000000E+00  0.00000000E+00  0.00000000E+00
  0.00000000E+00  0.00000000E+00  0.00000000E+00
  0.00000000E+00  0.00000000E+00  0.00000000E+00
  0.00000000E+00  0.00000000E+00  0.00000000E+00
  0.00000000E+00  0.00000000E+00  0.00000000E+00
  0.00000000E+00  0.00000000E+00  0.00000000E+00
  0.00000000E+00  0.00000000E+00  0.00000000E+00
  0.00000000E+00  0.00000000E+00  0.00000000E+00
  0.00000000E+00  0.00000000E+00  0.00000000E+00
  0.00000000E+00  0.00000000E+00  0.00000000E+00
  0.00000000E+00  0.00000000E+00  0.00000000E+00
  0.00000000E+00  0.00000000E+00  0.00000000E+00
  0.00000000E+00  0.00000000E+00  0.00000000E+00
  0.00000000E+00  0.00000000E+00  0.00000000E+00
  0.00000000E+00  0.00000000E+00  0.00000000E+00
  0.00000000E+00  0.00000000E+00  0.00000000E+00
  0.00000000E+00  0.00000000E+00  0.00000000E+00
  0.00000000E+00  0.00000000E+00  0.00000000E+00
  0.00000000E+00  0.00000000E+00  0.00000000E+00
  0.00000000E+00  0.00000000E+00  0.00000000E+00
  0.00000000E+00  0.00000000E+00  0.00000000E+00
  0.00000000E+00  0.00000000E+00  0.00000000E+00
  0.00000000E+00  0.00000000E+00  0.00000000E+00
  0.00000000E+00  0.00000000E+00  0.00000000E+00
  0.00000000E+00  0.00000000E+00  0.00000000E+00
  0.00000000E+00  0.00000000E+00  0.00000000E+00
  0.00000000E+00  0.00000000E+00  0.00000000E+00
  0.00000000E+00  0.00000000E+00  0.00000000E+00
  0.00000000E+00  0.00000000E+00  0.00000000E+00
  0.00000000E+00  0.00000000E+00  0.00000000E+00
  0.00000000E+00  0.00000000E+00  0.00000000E+00
  0.00000000E+00  0.00000000E+00  0.00000000E+00
  0.00000000E+00  0.00000000E+00  0.00000000E+00
  0.00000000E+00  0.00000000E+00  0.00000000E+00
  0.00000000E+00  0.00000000E+00  0.00000000E+00
  0.00000000E+00  0.00000000E+00  0.00000000E+00
  0.00000000E+00  0.00000000E+00  0.00000000E+00
  0.00000000E+00  0.00000000E+00  0.00000000E+00
  0.00000000E+00  0.00000000E+00  0.00000000E+00
  0.00000000E+00  0.00000000E+00  0.00000000E+00
  0.00000000E+00  0.00000000E+00  0.00000000E+00
  0.00000000E+00  0.00000000E+00  0.00000000E+00
  0.00000000E+00  0.00000000E+00  0.00000000E+00
  0.00000000E+00  0.00000000E+00  0.00000000E+00
  0.00000000E+00  0.00000000E+00  0.00000000E+00
  0.00000000E+00  0.00000000E+00  0.00000000E+00
  0.00000000E+00  0.00000000E+00  0.00000000E+00
  0.00000000E+00  0.00000000E+00  0.00000000E+00
  0.00000000E+00  0.00000000E+00  0.00000000E+00
  0.00000000E+00  0.00000000E+00  0.00000000E+00
  0.00000000E+00  0.00000000E+00  0.00000000E+00
  0.00000000E+00  0.00000000E+00  0.00000000E+00
  0.00000000E+00  0.00000000E+00  0.00000000E+00
  0.00000000E+00  0.00000000E+00  0.00000000E+00
  0.00000000E+00  0.00000000E+00  0.00000000E+00
  0.00000000E+00  0.00000000E+00  0.00000000E+00
  0.00000000E+00  0.00000000E+00  0.00000000E+00
  0.00000000E+00  0.00000000E+00  0.00000000E+00
  0.00000000E+00  0.00000000E+00  0.00000000E+00
  0.00000000E+00  0.00000000E+00  0.00000000E+00
  0.00000000E+00  0.00000000E+00  0.00000000E+00
  0.00000000E+00  0.00000000E+00  0.00000000E+00
  0.00000000E+00  0.00000000E+00  0.00000000E+00
  0.00000000E+00  0.00000000E+00  0.00000000E+00
  0.00000000E+00  0.00000000E+00  0.00000000E+00
  0.00000000E+00  0.00000000E+00  0.00000000E+00
  0.00000000E+00  0.00000000E+00  0.00000000E+00
  0.00000000E+00  0.00000000E+00  0.00000000E+00
  0.00000000E+00  0.00000000E+00  0.00000000E+00
  0.00000000E+00  0.00000000E+00  0.00000000E+00
