Ir36 O72                                
   1.00000000000000     
     9.5325385040720789    0.0000000000000000    0.0000000000000006
     0.0000000000000010    6.4022918038617691    0.0000000000000004
     0.0000000000000000    0.0000000000000000   56.6148967251015165
   Ir   O 
    36    72
Selective dynamics
Direct
  0.1666666666666643  0.7500000000000000  0.1575096799565940   T   T   T
  0.5000000000000000  0.7500000000000000  0.1575096799565940   T   T   T
  0.8333333333333357  0.7500000000000000  0.1575096799565940   T   T   T
 -0.0000000000000000  0.2500000000000000  0.1592619958661252   T   T   T
  0.3333333333333357  0.2500000000000000  0.1592619958661252   T   T   T
  0.6666666666666643  0.2500000000000000  0.1592619958661252   T   T   T
  0.1666666666666643  0.2500000000000000  0.2150528641913197   T   T   T
  0.5000000000000000  0.2500000000000000  0.2150528641913197   T   T   T
  0.8333333333333357  0.2500000000000000  0.2150528641913197   T   T   T
  0.0000000000000000  0.7500000000000000  0.2145102827850113   T   T   T
  0.3333333333333357  0.7500000000000000  0.2145102827850113   T   T   T
  0.6666666666666643  0.7500000000000000  0.2145102827850113   T   T   T
  0.1666666666666643  0.7500000000000000  0.2714038392382250   F   F   F
  0.5000000000000000  0.7500000000000000  0.2714038392382250   F   F   F
  0.8333333333333357  0.7500000000000000  0.2714038392382250   F   F   F
  0.0000000000000000  0.2500000000000000  0.2714038392382250   F   F   F
  0.3333333333333357  0.2500000000000000  0.2714038392382250   F   F   F
  0.6666666666666643  0.2500000000000000  0.2714038392382250   F   F   F
  0.1666666666666643  0.2500000000000000  0.3279463057461882   F   F   F
  0.5000000000000000  0.2500000000000000  0.3279463057461882   F   F   F
  0.8333333333333357  0.2500000000000000  0.3279463057461882   F   F   F
  0.0000000000000000  0.7500000000000000  0.3279463057461882   F   F   F
  0.3333333333333357  0.7500000000000000  0.3279463057461882   F   F   F
  0.6666666666666643  0.7500000000000000  0.3279463057461882   F   F   F
  0.1666666666666643  0.7500000000000000  0.3842972807930934   T   T   T
  0.5000000000000000  0.7500000000000000  0.3842972807930934   T   T   T
  0.8333333333333357  0.7500000000000000  0.3842972807930934   T   T   T
  0.0000000000000000  0.2500000000000000  0.3848398621994019   T   T   T
  0.3333333333333357  0.2500000000000000  0.3848398621994019   T   T   T
  0.6666666666666643  0.2500000000000000  0.3848398621994019   T   T   T
  0.1666666666666643  0.2500000000000000  0.4418404650278192   T   T   T
  0.5000000000000000  0.2500000000000000  0.4418404650278192   T   T   T
  0.8333333333333357  0.2500000000000000  0.4418404650278192   T   T   T
 -0.0000000000000000  0.7500000000000000  0.4400881491182879   T   T   T
  0.3333333333333357  0.7500000000000000  0.4400881491182879   T   T   T
  0.6666666666666643  0.7500000000000000  0.4400881491182879   T   T   T
 -0.0000000000000000  0.7500000000000000  0.1367783929733530   T   T   T
  0.3333333333333357  0.7500000000000000  0.1367783929733530   T   T   T
  0.6666666666666643  0.7500000000000000  0.1367783929733459   T   T   T
  0.1666666666666643  0.0598358442625808  0.1569295052538636   T   T   T
  0.5000000000000000  0.0598358442625808  0.1569295052538636   T   T   T
  0.8333333333333357  0.0598358442625808  0.1569295052538636   T   T   T
 -0.0000000000000000  0.7500000000000000  0.1795878499063366   T   T   T
  0.3333333333333357  0.7500000000000000  0.1795878499063366   T   T   T
  0.6666666666666643  0.7500000000000000  0.1795878499063366   T   T   T
  0.1666666666666643  0.4401641557374191  0.1569295052538636   T   T   T
  0.5000000000000000  0.4401641557374191  0.1569295052538636   T   T   T
  0.8333333333333357  0.4401641557374191  0.1569295052538636   T   T   T
  0.0000000000000000  0.2500000000000000  0.1935755254005746   T   T   T
  0.3333333333333357  0.2500000000000000  0.1935755254005746   T   T   T
  0.6666666666666643  0.2500000000000000  0.1935755254005746   T   T   T
  0.1666666666666643  0.5585405294089383  0.2146171643336173   T   T   T
  0.5000000000000000  0.5585405294089383  0.2146171643336173   T   T   T
  0.8333333333333357  0.5585405294089383  0.2146171643336173   T   T   T
  0.0000000000000000  0.2500000000000000  0.2367746155821281   T   T   T
  0.3333333333333357  0.2500000000000000  0.2367746155821281   T   T   T
  0.6666666666666643  0.2500000000000000  0.2367746155821281   T   T   T
  0.1666666666666643  0.9414594705910617  0.2146171643336173   T   T   T
  0.5000000000000000  0.9414594705910617  0.2146171643336173   T   T   T
  0.8333333333333357  0.9414594705910617  0.2146171643336173   T   T   T
  0.0000000000000000  0.7500000000000000  0.2497247611577791   F   F   F
  0.3333333333333357  0.7500000000000000  0.2497247611577791   F   F   F
  0.6666666666666643  0.7500000000000000  0.2497247611577791   F   F   F
  0.1666666666666643  0.0582938416084460  0.2714038392382250   F   F   F
  0.5000000000000000  0.0582938416084460  0.2714038392382250   F   F   F
  0.8333333333333357  0.0582938416084460  0.2714038392382250   F   F   F
  0.0000000000000000  0.7500000000000000  0.2930829173186780   F   F   F
  0.3333333333333357  0.7500000000000000  0.2930829173186780   F   F   F
  0.6666666666666643  0.7500000000000000  0.2930829173186780   F   F   F
  0.1666666666666643  0.4417061583915540  0.2714038392382250   F   F   F
  0.5000000000000000  0.4417061583915540  0.2714038392382250   F   F   F
  0.8333333333333357  0.4417061583915540  0.2714038392382250   F   F   F
  0.0000000000000000  0.2500000000000000  0.3062672276657423   F   F   F
  0.3333333333333357  0.2500000000000000  0.3062672276657423   F   F   F
  0.6666666666666643  0.2500000000000000  0.3062672276657423   F   F   F
  0.1666666666666643  0.5582938416084460  0.3279463057461882   F   F   F
  0.5000000000000000  0.5582938416084460  0.3279463057461882   F   F   F
  0.8333333333333357  0.5582938416084460  0.3279463057461882   F   F   F
  0.0000000000000000  0.2500000000000000  0.3496253838266412   F   F   F
  0.3333333333333357  0.2500000000000000  0.3496253838266412   F   F   F
  0.6666666666666643  0.2500000000000000  0.3496253838266412   F   F   F
  0.1666666666666643  0.9417061583915540  0.3279463057461882   F   F   F
  0.5000000000000000  0.9417061583915540  0.3279463057461882   F   F   F
  0.8333333333333357  0.9417061583915540  0.3279463057461882   F   F   F
  0.0000000000000000  0.7500000000000000  0.3625755294022923   T   T   T
  0.3333333333333357  0.7500000000000000  0.3625755294022923   T   T   T
  0.6666666666666643  0.7500000000000000  0.3625755294022923   T   T   T
  0.1666666666666643  0.0585405294089384  0.3847329806507957   T   T   T
  0.5000000000000000  0.0585405294089384  0.3847329806507957   T   T   T
  0.8333333333333357  0.0585405294089384  0.3847329806507957   T   T   T
  0.0000000000000000  0.7500000000000000  0.4057746195838458   T   T   T
  0.3333333333333357  0.7500000000000000  0.4057746195838458   T   T   T
  0.6666666666666643  0.7500000000000000  0.4057746195838458   T   T   T
  0.1666666666666643  0.4414594705910616  0.3847329806507957   T   T   T
  0.5000000000000000  0.4414594705910616  0.3847329806507957   T   T   T
  0.8333333333333357  0.4414594705910616  0.3847329806507957   T   T   T
  0.0000000000000000  0.2500000000000000  0.4197622950780837   T   T   T
  0.3333333333333357  0.2500000000000000  0.4197622950780837   T   T   T
  0.6666666666666643  0.2500000000000000  0.4197622950780837   T   T   T
  0.1666666666666643  0.5598358442625807  0.4424206397305495   T   T   T
  0.5000000000000000  0.5598358442625807  0.4424206397305495   T   T   T
  0.8333333333333357  0.5598358442625807  0.4424206397305495   T   T   T
 -0.0000000000000000  0.2500000000000000  0.4625717520110673   T   T   T
  0.3333333333333357  0.2500000000000000  0.4625717520110673   T   T   T
  0.6666666666666643  0.2500000000000000  0.4625717520110673   T   T   T
  0.1666666666666643  0.9401641557374193  0.4424206397305495   T   T   T
  0.5000000000000000  0.9401641557374193  0.4424206397305495   T   T   T
  0.8333333333333357  0.9401641557374193  0.4424206397305495   T   T   T
 
  0.00000000E+00  0.00000000E+00  0.00000000E+00
  0.00000000E+00  0.00000000E+00  0.00000000E+00
  0.00000000E+00  0.00000000E+00  0.00000000E+00
  0.00000000E+00  0.00000000E+00  0.00000000E+00
  0.00000000E+00  0.00000000E+00  0.00000000E+00
  0.00000000E+00  0.00000000E+00  0.00000000E+00
  0.00000000E+00  0.00000000E+00  0.00000000E+00
  0.00000000E+00  0.00000000E+00  0.00000000E+00
  0.00000000E+00  0.00000000E+00  0.00000000E+00
  0.00000000E+00  0.00000000E+00  0.00000000E+00
  0.00000000E+00  0.00000000E+00  0.00000000E+00
  0.00000000E+00  0.00000000E+00  0.00000000E+00
  0.00000000E+00  0.00000000E+00  0.00000000E+00
  0.00000000E+00  0.00000000E+00  0.00000000E+00
  0.00000000E+00  0.00000000E+00  0.00000000E+00
  0.00000000E+00  0.00000000E+00  0.00000000E+00
  0.00000000E+00  0.00000000E+00  0.00000000E+00
  0.00000000E+00  0.00000000E+00  0.00000000E+00
  0.00000000E+00  0.00000000E+00  0.00000000E+00
  0.00000000E+00  0.00000000E+00  0.00000000E+00
  0.00000000E+00  0.00000000E+00  0.00000000E+00
  0.00000000E+00  0.00000000E+00  0.00000000E+00
  0.00000000E+00  0.00000000E+00  0.00000000E+00
  0.00000000E+00  0.00000000E+00  0.00000000E+00
  0.00000000E+00  0.00000000E+00  0.00000000E+00
  0.00000000E+00  0.00000000E+00  0.00000000E+00
  0.00000000E+00  0.00000000E+00  0.00000000E+00
  0.00000000E+00  0.00000000E+00  0.00000000E+00
  0.00000000E+00  0.00000000E+00  0.00000000E+00
  0.00000000E+00  0.00000000E+00  0.00000000E+00
  0.00000000E+00  0.00000000E+00  0.00000000E+00
  0.00000000E+00  0.00000000E+00  0.00000000E+00
  0.00000000E+00  0.00000000E+00  0.00000000E+00
  0.00000000E+00  0.00000000E+00  0.00000000E+00
  0.00000000E+00  0.00000000E+00  0.00000000E+00
  0.00000000E+00  0.00000000E+00  0.00000000E+00
  0.00000000E+00  0.00000000E+00  0.00000000E+00
  0.00000000E+00  0.00000000E+00  0.00000000E+00
  0.00000000E+00  0.00000000E+00  0.00000000E+00
  0.00000000E+00  0.00000000E+00  0.00000000E+00
  0.00000000E+00  0.00000000E+00  0.00000000E+00
  0.00000000E+00  0.00000000E+00  0.00000000E+00
  0.00000000E+00  0.00000000E+00  0.00000000E+00
  0.00000000E+00  0.00000000E+00  0.00000000E+00
  0.00000000E+00  0.00000000E+00  0.00000000E+00
  0.00000000E+00  0.00000000E+00  0.00000000E+00
  0.00000000E+00  0.00000000E+00  0.00000000E+00
  0.00000000E+00  0.00000000E+00  0.00000000E+00
  0.00000000E+00  0.00000000E+00  0.00000000E+00
  0.00000000E+00  0.00000000E+00  0.00000000E+00
  0.00000000E+00  0.00000000E+00  0.00000000E+00
  0.00000000E+00  0.00000000E+00  0.00000000E+00
  0.00000000E+00  0.00000000E+00  0.00000000E+00
  0.00000000E+00  0.00000000E+00  0.00000000E+00
  0.00000000E+00  0.00000000E+00  0.00000000E+00
  0.00000000E+00  0.00000000E+00  0.00000000E+00
  0.00000000E+00  0.00000000E+00  0.00000000E+00
  0.00000000E+00  0.00000000E+00  0.00000000E+00
  0.00000000E+00  0.00000000E+00  0.00000000E+00
  0.00000000E+00  0.00000000E+00  0.00000000E+00
  0.00000000E+00  0.00000000E+00  0.00000000E+00
  0.00000000E+00  0.00000000E+00  0.00000000E+00
  0.00000000E+00  0.00000000E+00  0.00000000E+00
  0.00000000E+00  0.00000000E+00  0.00000000E+00
  0.00000000E+00  0.00000000E+00  0.00000000E+00
  0.00000000E+00  0.00000000E+00  0.00000000E+00
  0.00000000E+00  0.00000000E+00  0.00000000E+00
  0.00000000E+00  0.00000000E+00  0.00000000E+00
  0.00000000E+00  0.00000000E+00  0.00000000E+00
  0.00000000E+00  0.00000000E+00  0.00000000E+00
  0.00000000E+00  0.00000000E+00  0.00000000E+00
  0.00000000E+00  0.00000000E+00  0.00000000E+00
  0.00000000E+00  0.00000000E+00  0.00000000E+00
  0.00000000E+00  0.00000000E+00  0.00000000E+00
  0.00000000E+00  0.00000000E+00  0.00000000E+00
  0.00000000E+00  0.00000000E+00  0.00000000E+00
  0.00000000E+00  0.00000000E+00  0.00000000E+00
  0.00000000E+00  0.00000000E+00  0.00000000E+00
  0.00000000E+00  0.00000000E+00  0.00000000E+00
  0.00000000E+00  0.00000000E+00  0.00000000E+00
  0.00000000E+00  0.00000000E+00  0.00000000E+00
  0.00000000E+00  0.00000000E+00  0.00000000E+00
  0.00000000E+00  0.00000000E+00  0.00000000E+00
  0.00000000E+00  0.00000000E+00  0.00000000E+00
  0.00000000E+00  0.00000000E+00  0.00000000E+00
  0.00000000E+00  0.00000000E+00  0.00000000E+00
  0.00000000E+00  0.00000000E+00  0.00000000E+00
  0.00000000E+00  0.00000000E+00  0.00000000E+00
  0.00000000E+00  0.00000000E+00  0.00000000E+00
  0.00000000E+00  0.00000000E+00  0.00000000E+00
  0.00000000E+00  0.00000000E+00  0.00000000E+00
  0.00000000E+00  0.00000000E+00  0.00000000E+00
  0.00000000E+00  0.00000000E+00  0.00000000E+00
  0.00000000E+00  0.00000000E+00  0.00000000E+00
  0.00000000E+00  0.00000000E+00  0.00000000E+00
  0.00000000E+00  0.00000000E+00  0.00000000E+00
  0.00000000E+00  0.00000000E+00  0.00000000E+00
  0.00000000E+00  0.00000000E+00  0.00000000E+00
  0.00000000E+00  0.00000000E+00  0.00000000E+00
  0.00000000E+00  0.00000000E+00  0.00000000E+00
  0.00000000E+00  0.00000000E+00  0.00000000E+00
  0.00000000E+00  0.00000000E+00  0.00000000E+00
  0.00000000E+00  0.00000000E+00  0.00000000E+00
  0.00000000E+00  0.00000000E+00  0.00000000E+00
  0.00000000E+00  0.00000000E+00  0.00000000E+00
  0.00000000E+00  0.00000000E+00  0.00000000E+00
  0.00000000E+00  0.00000000E+00  0.00000000E+00
  0.00000000E+00  0.00000000E+00  0.00000000E+00
