Ir36 O72
1.0
   9.5325385040720789    0.0000000000000000    0.0000000000000006
   0.0000000000000010    6.4022918038617691    0.0000000000000004
   0.0000000000000000    0.0000000000000000   56.6148967251015165
Ir O
36 72
Selective Dynamics
direct
0.1666666666666668 -0.2500000000000000 0.1583189062222988 T T T Ir
0.4999999999999999 -0.2499999999999999 0.1583189062222988 T T T Ir
0.8333333333333333 -0.2499999999999999 0.1583189062222988 T T T Ir
0.0000000000000001 -0.7500000000000002 0.1583189062222988 T T T Ir
0.3333333333333334 -0.7500000000000002 0.1583189062222988 T T T Ir
0.6666666666666667 -0.7500000000000002 0.1583189062222988 T T T Ir
0.1666666666666668 -0.7500000000000002 0.2148613727302628 T T T Ir
0.4999999999999998 -0.7500000000000002 0.2148613727302625 T T T Ir
0.8333333333333334 -0.7500000000000002 0.2148613727302625 T T T Ir
0.0000000000000001 -1.2500000000000002 0.2148613727302628 T T T Ir
0.3333333333333334 -1.2500000000000002 0.2148613727302628 T T T Ir
0.6666666666666667 -1.2500000000000002 0.2148613727302625 T T T Ir
0.1666666666666669 -1.2500000000000002 0.2714038392382264 F F F Ir
0.5000000000000000 -1.2499999999999998 0.2714038392382264 F F F Ir
0.8333333333333334 -1.2499999999999998 0.2714038392382264 F F F Ir
0.0000000000000002 -1.7500000000000002 0.2714038392382265 F F F Ir
0.3333333333333335 -1.7500000000000000 0.2714038392382264 F F F Ir
0.6666666666666669 -1.7500000000000000 0.2714038392382264 F F F Ir
0.1666666666666669 -1.7500000000000011 0.3279463057461903 F F F Ir
0.5000000000000001 -1.7500000000000000 0.3279463057461903 F F F Ir
0.8333333333333335 -1.7500000000000000 0.3279463057461903 F F F Ir
0.0000000000000002 -2.2500000000000004 0.3279463057461903 F F F Ir
0.3333333333333335 -2.2500000000000004 0.3279463057461903 F F F Ir
0.6666666666666669 -2.2500000000000004 0.3279463057461903 F F F Ir
0.1666666666666670 -2.2500000000000004 0.3844887722541542 T T T Ir
0.4999999999999997 -2.2500000000000004 0.3844887722541541 T T T Ir
0.8333333333333334 -2.2500000000000004 0.3844887722541541 T T T Ir
0.0000000000000003 -2.7500000000000013 0.3844887722541542 T T T Ir
0.3333333333333336 -2.7500000000000013 0.3844887722541542 T T T Ir
0.6666666666666670 -2.7500000000000013 0.3844887722541542 T T T Ir
0.1666666666666670 -2.7500000000000013 0.4410312387621179 T T T Ir
0.5000000000000002 -2.7500000000000013 0.4410312387621180 T T T Ir
0.8333333333333336 -2.7500000000000013 0.4410312387621180 T T T Ir
0.0000000000000003 -3.2500000000000004 0.4410312387621179 T T T Ir
0.3333333333333336 -3.2500000000000004 0.4410312387621179 T T T Ir
0.6666666666666670 -3.2500000000000004 0.4410312387621180 T T T Ir
0.0000000000000001 -0.2500000000000000 0.1366398281418492 T T T O
0.3333333333333334 -0.2499999999999999 0.1366398281418492 T T T O
0.6666666666666666 -0.2500000000000000 0.1366398281418490 T T T O
0.1666666666666667 0.0582938416084460 0.1583189062222988 T T T O
0.5000000000000000 0.0582938416084461 0.1583189062222988 T T T O
0.8333333333333334 0.0582938416084461 0.1583189062222986 T T T O
0.0000000000000001 -0.2499999999999998 0.1799979843027485 T T T O
0.3333333333333334 -0.2499999999999998 0.1799979843027485 T T T O
0.6666666666666666 -0.2499999999999998 0.1799979843027485 T T T O
0.1666666666666667 -0.5582938416084459 0.1583189062222988 T T T O
0.5000000000000001 -0.5582938416084461 0.1583189062222988 T T T O
0.8333333333333334 -0.5582938416084459 0.1583189062222988 T T T O
0.0000000000000001 -0.7500000000000002 0.1931822946498130 T T T O
0.3333333333333334 -0.7500000000000002 0.1931822946498131 T T T O
0.6666666666666667 -0.7499999999999998 0.1931822946498130 T T T O
0.1666666666666668 -0.4417061583915540 0.2148613727302625 T T T O
0.5000000000000001 -0.4417061583915540 0.2148613727302625 T T T O
0.8333333333333335 -0.4417061583915540 0.2148613727302625 T T T O
0.0000000000000002 -0.7499999999999998 0.2365404508107124 T T T O
0.3333333333333334 -0.7499999999999998 0.2365404508107124 T T T O
0.6666666666666667 -0.7499999999999998 0.2365404508107124 T T T O
0.1666666666666668 -1.0582938416084458 0.2148613727302625 T T T O
0.5000000000000001 -1.0582938416084458 0.2148613727302625 T T T O
0.8333333333333334 -1.0582938416084460 0.2148613727302625 T T T O
0.0000000000000002 -1.2500000000000000 0.2497247611577768 F F F O
0.3333333333333334 -1.2500000000000002 0.2497247611577768 F F F O
0.6666666666666667 -1.2500000000000000 0.2497247611577768 F F F O
0.1666666666666669 -0.9417061583915539 0.2714038392382264 F F F O
0.5000000000000001 -0.9417061583915540 0.2714038392382265 F F F O
0.8333333333333335 -0.9417061583915540 0.2714038392382265 F F F O
0.0000000000000002 -1.2500000000000002 0.2930829173186763 F F F O
0.3333333333333334 -1.2500000000000002 0.2930829173186763 F F F O
0.6666666666666669 -1.2499999999999998 0.2930829173186760 F F F O
0.1666666666666668 -1.5582938416084462 0.2714038392382265 F F F O
0.4999999999999999 -1.5582938416084462 0.2714038392382264 F F F O
0.8333333333333333 -1.5582938416084462 0.2714038392382264 F F F O
0.0000000000000002 -1.7500000000000000 0.3062672276657404 F F F O
0.3333333333333335 -1.7500000000000000 0.3062672276657404 F F F O
0.6666666666666669 -1.7500000000000000 0.3062672276657404 F F F O
0.1666666666666669 -1.4417061583915545 0.3279463057461903 F F F O
0.4999999999999999 -1.4417061583915538 0.3279463057461903 F F F O
0.8333333333333333 -1.4417061583915538 0.3279463057461903 F F F O
0.0000000000000003 -1.7500000000000000 0.3496253838266400 F F F O
0.3333333333333335 -1.7500000000000000 0.3496253838266400 F F F O
0.6666666666666669 -1.7500000000000000 0.3496253838266400 F F F O
0.1666666666666669 -2.0582938416084464 0.3279463057461903 F F F O
0.5000000000000002 -2.0582938416084464 0.3279463057461903 F F F O
0.8333333333333335 -2.0582938416084464 0.3279463057461903 F F F O
0.0000000000000003 -2.2499999999999996 0.3628096941737044 T T T O
0.3333333333333335 -2.2500000000000004 0.3628096941737044 T T T O
0.6666666666666669 -2.2499999999999996 0.3628096941737042 T T T O
0.1666666666666670 -1.9417061583915538 0.3844887722541541 T T T O
0.5000000000000002 -1.9417061583915538 0.3844887722541541 T T T O
0.8333333333333336 -1.9417061583915538 0.3844887722541541 T T T O
0.0000000000000003 -2.2500000000000004 0.4061678503346036 T T T O
0.3333333333333335 -2.2500000000000004 0.4061678503346038 T T T O
0.6666666666666669 -2.2500000000000004 0.4061678503346038 T T T O
0.1666666666666669 -2.5582938416084464 0.3844887722541542 T T T O
0.5000000000000003 -2.5582938416084464 0.3844887722541542 T T T O
0.8333333333333334 -2.5582938416084464 0.3844887722541542 T T T O
0.0000000000000003 -2.7500000000000013 0.4193521606816684 T T T O
0.3333333333333336 -2.7499999999999996 0.4193521606816684 T T T O
0.6666666666666670 -2.7499999999999996 0.4193521606816682 T T T O
0.1666666666666670 -2.4417061583915540 0.4410312387621180 T T T O
0.5000000000000003 -2.4417061583915540 0.4410312387621180 T T T O
0.8333333333333334 -2.4417061583915540 0.4410312387621180 T T T O
0.0000000000000004 -2.7499999999999991 0.4627103168425676 T T T O
0.3333333333333336 -2.7499999999999991 0.4627103168425676 T T T O
0.6666666666666670 -2.7499999999999996 0.4627103168425676 T T T O
0.1666666666666670 -3.0582938416084455 0.4410312387621179 T T T O
0.5000000000000006 -3.0582938416084460 0.4410312387621180 T T T O
0.8333333333333336 -3.0582938416084460 0.4410312387621180 T T T O
