Ir36 H6 O78                             
   1.00000000000000     
     9.5325385040720789    0.0000000000000000    0.0000000000000006
     0.0000000000000010    6.4022918038617691    0.0000000000000004
     0.0000000000000000    0.0000000000000000   56.6148967251015165
   H    Ir   O 
     6    36    78
Selective dynamics
Direct
  0.9114869098318508  0.2500000000000000  0.1173697476783460   T   T   T
  0.0885130901681492  0.7500000000000000  0.4819787865236123   T   T   T
  0.5781535764985222  0.2500000000000000  0.1173697476783460   T   T   T
  0.4218464235014778  0.7500000000000000  0.4819787865236123   T   T   T
  0.2448202431651865  0.2500000000000000  0.1173697476783460   T   T   T
  0.7551797568348135  0.7500000000000000  0.4819787865236123   T   T   T
  0.1652934730268569  0.7500000000000000  0.1579007667708794   T   T   T
  0.4986268063601926  0.7500000000000000  0.1579007667708794   T   T   T
  0.8319601396935283  0.7500000000000000  0.1579007667708794   T   T   T
  0.9981279543404469  0.2500000000000000  0.1581721898768507   T   T   T
  0.3314612876737826  0.2500000000000000  0.1581721898768507   T   T   T
  0.6647946210071112  0.2500000000000000  0.1581721898768507   T   T   T
  0.1658434155450266  0.2500000000000000  0.2149334120520550   T   T   T
  0.4991767488783623  0.2500000000000000  0.2149334120520550   T   T   T
  0.8325100822116980  0.2500000000000000  0.2149334120520550   T   T   T
  0.9992546363242027  0.7500000000000000  0.2146658926084939   T   T   T
  0.3325879696575385  0.7500000000000000  0.2146658926084939   T   T   T
  0.6659213029908670  0.7500000000000000  0.2146658926084939   T   T   T
  0.1666666666666643  0.7500000000000000  0.2714038392382250   F   F   F
  0.5000000000000000  0.7500000000000000  0.2714038392382250   F   F   F
  0.8333333333333357  0.7500000000000000  0.2714038392382250   F   F   F
  0.0000000000000000  0.2500000000000000  0.2714038392382250   F   F   F
  0.3333333333333357  0.2500000000000000  0.2714038392382250   F   F   F
  0.6666666666666643  0.2500000000000000  0.2714038392382250   F   F   F
  0.1666666666666643  0.2500000000000000  0.3279463057461882   F   F   F
  0.5000000000000000  0.2500000000000000  0.3279463057461882   F   F   F
  0.8333333333333357  0.2500000000000000  0.3279463057461882   F   F   F
  0.0000000000000000  0.7500000000000000  0.3279463057461882   F   F   F
  0.3333333333333357  0.7500000000000000  0.3279463057461882   F   F   F
  0.6666666666666643  0.7500000000000000  0.3279463057461882   F   F   F
  0.1674899177883020  0.7500000000000000  0.3844167329323582   T   T   T
  0.5008232511216377  0.7500000000000000  0.3844167329323582   T   T   T
  0.8341565844549734  0.7500000000000000  0.3844167329323582   T   T   T
  0.0007453636757973  0.2500000000000000  0.3846842523759193   T   T   T
  0.3340786970091330  0.2500000000000000  0.3846842523759193   T   T   T
  0.6674120303424615  0.2500000000000000  0.3846842523759193   T   T   T
  0.1680398603064717  0.2500000000000000  0.4414493782135338   T   T   T
  0.5013731936398074  0.2500000000000000  0.4414493782135338   T   T   T
  0.8347065269731431  0.2500000000000000  0.4414493782135338   T   T   T
  0.0018720456595531  0.7500000000000000  0.4411779551075625   T   T   T
  0.3352053789928888  0.7500000000000000  0.4411779551075625   T   T   T
  0.6685387123262174  0.7500000000000000  0.4411779551075625   T   T   T
  0.9984672186026202  0.7500000000000000  0.1372968352273887   T   T   T
  0.3318005519359559  0.7500000000000000  0.1372968352273887   T   T   T
  0.6651338852692845  0.7500000000000000  0.1372968352273816   T   T   T
  0.1651830809433861  0.0583373690968969  0.1585390698048101   T   T   T
  0.4985164142767218  0.0583373690968969  0.1585390698048101   T   T   T
  0.8318497476100575  0.0583373690968969  0.1585390698048101   T   T   T
  0.9986628563838309  0.7500000000000000  0.1798629084582615   T   T   T
  0.3319961897171666  0.7500000000000000  0.1798629084582615   T   T   T
  0.6653295230504952  0.7500000000000000  0.1798629084582615   T   T   T
  0.1651830809433861  0.4416626309031031  0.1585390698048101   T   T   T
  0.4985164142767218  0.4416626309031031  0.1585390698048101   T   T   T
  0.8318497476100575  0.4416626309031031  0.1585390698048101   T   T   T
  0.9990424368856168  0.2500000000000000  0.1933367683100045   T   T   T
  0.3323757702189525  0.2500000000000000  0.1933367683100045   T   T   T
  0.6657091035522811  0.2500000000000000  0.1933367683100045   T   T   T
  0.1658239668455863  0.5586341251821807  0.2148457968889801   T   T   T
  0.4991573001789220  0.5586341251821807  0.2148457968889801   T   T   T
  0.8324906335122577  0.5586341251821807  0.2148457968889801   T   T   T
  0.9993128359049379  0.2500000000000000  0.2365360442808253   T   T   T
  0.3326461692382736  0.2500000000000000  0.2365360442808253   T   T   T
  0.6659795025716022  0.2500000000000000  0.2365360442808253   T   T   T
  0.1658239668455863  0.9413658748178193  0.2148457968889801   T   T   T
  0.4991573001789220  0.9413658748178193  0.2148457968889801   T   T   T
  0.8324906335122577  0.9413658748178193  0.2148457968889801   T   T   T
  0.0000000000000000  0.7500000000000000  0.2497247611577791   F   F   F
  0.3333333333333357  0.7500000000000000  0.2497247611577791   F   F   F
  0.6666666666666643  0.7500000000000000  0.2497247611577791   F   F   F
  0.1666666666666643  0.0582938416084460  0.2714038392382250   F   F   F
  0.5000000000000000  0.0582938416084460  0.2714038392382250   F   F   F
  0.8333333333333357  0.0582938416084460  0.2714038392382250   F   F   F
  0.0000000000000000  0.7500000000000000  0.2930829173186780   F   F   F
  0.3333333333333357  0.7500000000000000  0.2930829173186780   F   F   F
  0.6666666666666643  0.7500000000000000  0.2930829173186780   F   F   F
  0.1666666666666643  0.4417061583915540  0.2714038392382250   F   F   F
  0.5000000000000000  0.4417061583915540  0.2714038392382250   F   F   F
  0.8333333333333357  0.4417061583915540  0.2714038392382250   F   F   F
  0.0000000000000000  0.2500000000000000  0.3062672276657423   F   F   F
  0.3333333333333357  0.2500000000000000  0.3062672276657423   F   F   F
  0.6666666666666643  0.2500000000000000  0.3062672276657423   F   F   F
  0.1666666666666643  0.5582938416084460  0.3279463057461882   F   F   F
  0.5000000000000000  0.5582938416084460  0.3279463057461882   F   F   F
  0.8333333333333357  0.5582938416084460  0.3279463057461882   F   F   F
  0.0000000000000000  0.2500000000000000  0.3496253838266412   F   F   F
  0.3333333333333357  0.2500000000000000  0.3496253838266412   F   F   F
  0.6666666666666643  0.2500000000000000  0.3496253838266412   F   F   F
  0.1666666666666643  0.9417061583915540  0.3279463057461882   F   F   F
  0.5000000000000000  0.9417061583915540  0.3279463057461882   F   F   F
  0.8333333333333357  0.9417061583915540  0.3279463057461882   F   F   F
  0.0006871640950621  0.7500000000000000  0.3628141007035950   T   T   T
  0.3340204974283978  0.7500000000000000  0.3628141007035950   T   T   T
  0.6673538307617264  0.7500000000000000  0.3628141007035950   T   T   T
  0.1675093664877423  0.0586341251821807  0.3845043480954331   T   T   T
  0.5008426998210780  0.0586341251821807  0.3845043480954331   T   T   T
  0.8341760331544137  0.0586341251821807  0.3845043480954331   T   T   T
  0.0009575631143832  0.7500000000000000  0.4060133766744158   T   T   T
  0.3342908964477189  0.7500000000000000  0.4060133766744158   T   T   T
  0.6676242297810475  0.7500000000000000  0.4060133766744158   T   T   T
  0.1675093664877423  0.4413658748178193  0.3845043480954331   T   T   T
  0.5008426998210780  0.4413658748178193  0.3845043480954331   T   T   T
  0.8341760331544137  0.4413658748178193  0.3845043480954331   T   T   T
  0.0013371436161691  0.2500000000000000  0.4194872365261588   T   T   T
  0.3346704769495048  0.2500000000000000  0.4194872365261588   T   T   T
  0.6680038102828334  0.2500000000000000  0.4194872365261588   T   T   T
  0.1681502523899425  0.5583373690968969  0.4408110751796031   T   T   T
  0.5014835857232782  0.5583373690968969  0.4408110751796031   T   T   T
  0.8348169190566139  0.5583373690968969  0.4408110751796031   T   T   T
  0.0015327813973798  0.2500000000000000  0.4620533097570316   T   T   T
  0.3348661147307155  0.2500000000000000  0.4620533097570316   T   T   T
  0.6681994480640441  0.2500000000000000  0.4620533097570316   T   T   T
  0.1681502523899425  0.9416626309031031  0.4408110751796031   T   T   T
  0.5014835857232782  0.9416626309031031  0.4408110751796031   T   T   T
  0.8348169190566139  0.9416626309031031  0.4408110751796031   T   T   T
  0.0065322972688904  0.2500000000000000  0.1240656260334632   T   T   T
  0.9934677027311096  0.7500000000000000  0.4752829081684951   T   T   T
  0.3398656306022261  0.2500000000000000  0.1240656260334632   T   T   T
  0.6601343693977739  0.7500000000000000  0.4752829081684951   T   T   T
  0.6731989639355547  0.2500000000000000  0.1240656260334632   T   T   T
  0.3268010360644453  0.7500000000000000  0.4752829081684951   T   T   T
 
  0.00000000E+00  0.00000000E+00  0.00000000E+00
  0.00000000E+00  0.00000000E+00  0.00000000E+00
  0.00000000E+00  0.00000000E+00  0.00000000E+00
  0.00000000E+00  0.00000000E+00  0.00000000E+00
  0.00000000E+00  0.00000000E+00  0.00000000E+00
  0.00000000E+00  0.00000000E+00  0.00000000E+00
  0.00000000E+00  0.00000000E+00  0.00000000E+00
  0.00000000E+00  0.00000000E+00  0.00000000E+00
  0.00000000E+00  0.00000000E+00  0.00000000E+00
  0.00000000E+00  0.00000000E+00  0.00000000E+00
  0.00000000E+00  0.00000000E+00  0.00000000E+00
  0.00000000E+00  0.00000000E+00  0.00000000E+00
  0.00000000E+00  0.00000000E+00  0.00000000E+00
  0.00000000E+00  0.00000000E+00  0.00000000E+00
  0.00000000E+00  0.00000000E+00  0.00000000E+00
  0.00000000E+00  0.00000000E+00  0.00000000E+00
  0.00000000E+00  0.00000000E+00  0.00000000E+00
  0.00000000E+00  0.00000000E+00  0.00000000E+00
  0.00000000E+00  0.00000000E+00  0.00000000E+00
  0.00000000E+00  0.00000000E+00  0.00000000E+00
  0.00000000E+00  0.00000000E+00  0.00000000E+00
  0.00000000E+00  0.00000000E+00  0.00000000E+00
  0.00000000E+00  0.00000000E+00  0.00000000E+00
  0.00000000E+00  0.00000000E+00  0.00000000E+00
  0.00000000E+00  0.00000000E+00  0.00000000E+00
  0.00000000E+00  0.00000000E+00  0.00000000E+00
  0.00000000E+00  0.00000000E+00  0.00000000E+00
  0.00000000E+00  0.00000000E+00  0.00000000E+00
  0.00000000E+00  0.00000000E+00  0.00000000E+00
  0.00000000E+00  0.00000000E+00  0.00000000E+00
  0.00000000E+00  0.00000000E+00  0.00000000E+00
  0.00000000E+00  0.00000000E+00  0.00000000E+00
  0.00000000E+00  0.00000000E+00  0.00000000E+00
  0.00000000E+00  0.00000000E+00  0.00000000E+00
  0.00000000E+00  0.00000000E+00  0.00000000E+00
  0.00000000E+00  0.00000000E+00  0.00000000E+00
  0.00000000E+00  0.00000000E+00  0.00000000E+00
  0.00000000E+00  0.00000000E+00  0.00000000E+00
  0.00000000E+00  0.00000000E+00  0.00000000E+00
  0.00000000E+00  0.00000000E+00  0.00000000E+00
  0.00000000E+00  0.00000000E+00  0.00000000E+00
  0.00000000E+00  0.00000000E+00  0.00000000E+00
  0.00000000E+00  0.00000000E+00  0.00000000E+00
  0.00000000E+00  0.00000000E+00  0.00000000E+00
  0.00000000E+00  0.00000000E+00  0.00000000E+00
  0.00000000E+00  0.00000000E+00  0.00000000E+00
  0.00000000E+00  0.00000000E+00  0.00000000E+00
  0.00000000E+00  0.00000000E+00  0.00000000E+00
  0.00000000E+00  0.00000000E+00  0.00000000E+00
  0.00000000E+00  0.00000000E+00  0.00000000E+00
  0.00000000E+00  0.00000000E+00  0.00000000E+00
  0.00000000E+00  0.00000000E+00  0.00000000E+00
  0.00000000E+00  0.00000000E+00  0.00000000E+00
  0.00000000E+00  0.00000000E+00  0.00000000E+00
  0.00000000E+00  0.00000000E+00  0.00000000E+00
  0.00000000E+00  0.00000000E+00  0.00000000E+00
  0.00000000E+00  0.00000000E+00  0.00000000E+00
  0.00000000E+00  0.00000000E+00  0.00000000E+00
  0.00000000E+00  0.00000000E+00  0.00000000E+00
  0.00000000E+00  0.00000000E+00  0.00000000E+00
  0.00000000E+00  0.00000000E+00  0.00000000E+00
  0.00000000E+00  0.00000000E+00  0.00000000E+00
  0.00000000E+00  0.00000000E+00  0.00000000E+00
  0.00000000E+00  0.00000000E+00  0.00000000E+00
  0.00000000E+00  0.00000000E+00  0.00000000E+00
  0.00000000E+00  0.00000000E+00  0.00000000E+00
  0.00000000E+00  0.00000000E+00  0.00000000E+00
  0.00000000E+00  0.00000000E+00  0.00000000E+00
  0.00000000E+00  0.00000000E+00  0.00000000E+00
  0.00000000E+00  0.00000000E+00  0.00000000E+00
  0.00000000E+00  0.00000000E+00  0.00000000E+00
  0.00000000E+00  0.00000000E+00  0.00000000E+00
  0.00000000E+00  0.00000000E+00  0.00000000E+00
  0.00000000E+00  0.00000000E+00  0.00000000E+00
  0.00000000E+00  0.00000000E+00  0.00000000E+00
  0.00000000E+00  0.00000000E+00  0.00000000E+00
  0.00000000E+00  0.00000000E+00  0.00000000E+00
  0.00000000E+00  0.00000000E+00  0.00000000E+00
  0.00000000E+00  0.00000000E+00  0.00000000E+00
  0.00000000E+00  0.00000000E+00  0.00000000E+00
  0.00000000E+00  0.00000000E+00  0.00000000E+00
  0.00000000E+00  0.00000000E+00  0.00000000E+00
  0.00000000E+00  0.00000000E+00  0.00000000E+00
  0.00000000E+00  0.00000000E+00  0.00000000E+00
  0.00000000E+00  0.00000000E+00  0.00000000E+00
  0.00000000E+00  0.00000000E+00  0.00000000E+00
  0.00000000E+00  0.00000000E+00  0.00000000E+00
  0.00000000E+00  0.00000000E+00  0.00000000E+00
  0.00000000E+00  0.00000000E+00  0.00000000E+00
  0.00000000E+00  0.00000000E+00  0.00000000E+00
  0.00000000E+00  0.00000000E+00  0.00000000E+00
  0.00000000E+00  0.00000000E+00  0.00000000E+00
  0.00000000E+00  0.00000000E+00  0.00000000E+00
  0.00000000E+00  0.00000000E+00  0.00000000E+00
  0.00000000E+00  0.00000000E+00  0.00000000E+00
  0.00000000E+00  0.00000000E+00  0.00000000E+00
  0.00000000E+00  0.00000000E+00  0.00000000E+00
  0.00000000E+00  0.00000000E+00  0.00000000E+00
  0.00000000E+00  0.00000000E+00  0.00000000E+00
  0.00000000E+00  0.00000000E+00  0.00000000E+00
  0.00000000E+00  0.00000000E+00  0.00000000E+00
  0.00000000E+00  0.00000000E+00  0.00000000E+00
  0.00000000E+00  0.00000000E+00  0.00000000E+00
  0.00000000E+00  0.00000000E+00  0.00000000E+00
  0.00000000E+00  0.00000000E+00  0.00000000E+00
  0.00000000E+00  0.00000000E+00  0.00000000E+00
  0.00000000E+00  0.00000000E+00  0.00000000E+00
  0.00000000E+00  0.00000000E+00  0.00000000E+00
  0.00000000E+00  0.00000000E+00  0.00000000E+00
  0.00000000E+00  0.00000000E+00  0.00000000E+00
  0.00000000E+00  0.00000000E+00  0.00000000E+00
  0.00000000E+00  0.00000000E+00  0.00000000E+00
  0.00000000E+00  0.00000000E+00  0.00000000E+00
  0.00000000E+00  0.00000000E+00  0.00000000E+00
  0.00000000E+00  0.00000000E+00  0.00000000E+00
  0.00000000E+00  0.00000000E+00  0.00000000E+00
  0.00000000E+00  0.00000000E+00  0.00000000E+00
  0.00000000E+00  0.00000000E+00  0.00000000E+00
  0.00000000E+00  0.00000000E+00  0.00000000E+00
  0.00000000E+00  0.00000000E+00  0.00000000E+00
