Automatic mesh
0
Gamma
6	8	1
0.0	0.0	0.0
EOF
