Ir36 6 O72                              
   1.00000000000000     
     9.5325385040720789    0.0000000000000000    0.0000000000000006
     0.0000000000000010    6.4022918038617691    0.0000000000000004
     0.0000000000000000    0.0000000000000000   56.6148967251015165
   H    Ir   O 
     6    36    72
Selective dynamics
Direct
 -0.0000034983285606  0.8882811588540421  0.1259562703171001   T   T   T
  0.0000034983285606  0.1117188411459581  0.4733922638848583   T   T   T
  0.6666631683381041  0.8882811588540421  0.1259562703171001   T   T   T
  0.3333368316618963  0.1117188411459581  0.4733922638848583   T   T   T
  0.3333298350047751  0.8882811588540421  0.1259562703171001   T   T   T
  0.6666701649952245  0.1117188411459581  0.4733922638848583   T   T   T
  0.1666590994656793  0.7561979904636881  0.1578285730769467   T   T   T
  0.4999924327990149  0.7561979904636881  0.1578285730769467   T   T   T
  0.8333257661323504  0.7561979904636881  0.1578285730769467   T   T   T
 -0.0000103225267689  0.2584608281580041  0.1586288802311530   T   T   T
  0.3333230108065670  0.2584608281580041  0.1586288802311530   T   T   T
  0.6666563441398953  0.2584608281580041  0.1586288802311530   T   T   T
  0.1666642661169803  0.2465895889903393  0.2149820705218195   T   T   T
  0.4999975994503158  0.2465895889903393  0.2149820705218195   T   T   T
  0.8333309327836517  0.2465895889903393  0.2149820705218195   T   T   T
 -0.0000017933857540  0.7468787178331496  0.2146587842103910   T   T   T
  0.3333315399475816  0.7468787178331496  0.2146587842103910   T   T   T
  0.6666648732809106  0.7468787178331496  0.2146587842103910   T   T   T
  0.1666666666666643  0.7500000000000000  0.2714038392382250   F   F   F
  0.5000000000000000  0.7500000000000000  0.2714038392382250   F   F   F
  0.8333333333333357  0.7500000000000000  0.2714038392382250   F   F   F
  0.0000000000000000  0.2500000000000000  0.2714038392382250   F   F   F
  0.3333333333333357  0.2500000000000000  0.2714038392382250   F   F   F
  0.6666666666666643  0.2500000000000000  0.2714038392382250   F   F   F
  0.1666666666666643  0.2500000000000000  0.3279463057461882   F   F   F
  0.5000000000000000  0.2500000000000000  0.3279463057461882   F   F   F
  0.8333333333333357  0.2500000000000000  0.3279463057461882   F   F   F
  0.0000000000000000  0.7500000000000000  0.3279463057461882   F   F   F
  0.3333333333333357  0.7500000000000000  0.3279463057461882   F   F   F
  0.6666666666666643  0.7500000000000000  0.3279463057461882   F   F   F
  0.1666690672163483  0.7534104110096606  0.3843680744625938   T   T   T
  0.5000024005496840  0.7534104110096606  0.3843680744625938   T   T   T
  0.8333357338830197  0.7534104110096606  0.3843680744625938   T   T   T
  0.0000017933857540  0.2531212821668503  0.3846913607740221   T   T   T
  0.3333351267190898  0.2531212821668503  0.3846913607740221   T   T   T
  0.6666684600524180  0.2531212821668503  0.3846913607740221   T   T   T
  0.1666742338676493  0.2438020095363117  0.4415215719074665   T   T   T
  0.5000075672009853  0.2438020095363117  0.4415215719074665   T   T   T
  0.8333409005343210  0.2438020095363117  0.4415215719074665   T   T   T
  0.0000103225267689  0.7415391718419962  0.4407212647532602   T   T   T
  0.3333436558601044  0.7415391718419962  0.4407212647532602   T   T   T
  0.6666769891934333  0.7415391718419962  0.4407212647532602   T   T   T
 -0.0000063770291110  0.7540185235245419  0.1342193046478517   T   T   T
  0.3333269563042246  0.7540185235245419  0.1342193046478517   T   T   T
  0.6666602896375532  0.7540185235245419  0.1342193046478446   T   T   T
  0.1666575719365566  0.0658013450833835  0.1553999088481643   T   T   T
  0.4999909052698921  0.0658013450833835  0.1553999088481643   T   T   T
  0.8333242386032280  0.0658013450833835  0.1553999088481643   T   T   T
 -0.0000067641426503  0.7504474636447299  0.1795868308400145   T   T   T
  0.3333265691906852  0.7504474636447299  0.1795868308400145   T   T   T
  0.6666599025240136  0.7504474636447299  0.1795868308400145   T   T   T
  0.1666578542062976  0.4470605973469743  0.1560282953982187   T   T   T
  0.4999911875396330  0.4470605973469743  0.1560282953982187   T   T   T
  0.8333245208729692  0.4470605973469743  0.1560282953982187   T   T   T
 -0.0000026397270312  0.2336714591244296  0.1934743240890606   T   T   T
  0.3333306936063044  0.2336714591244296  0.1934743240890606   T   T   T
  0.6666640269396331  0.2336714591244296  0.1934743240890606   T   T   T
  0.1666635451673352  0.5547816350631168  0.2142960328759978   T   T   T
  0.4999968785006708  0.5547816350631168  0.2142960328759978   T   T   T
  0.8333302118340069  0.5547816350631168  0.2142960328759978   T   T   T
 -0.0000019923019742  0.2508209813512747  0.2366918430682391   T   T   T
  0.3333313410313613  0.2508209813512747  0.2366918430682391   T   T   T
  0.6666646743646902  0.2508209813512747  0.2366918430682391   T   T   T
  0.1666634309524426  0.9379530693324033  0.2149880706797462   T   T   T
  0.4999967642857785  0.9379530693324033  0.2149880706797462   T   T   T
  0.8333300976191138  0.9379530693324033  0.2149880706797462   T   T   T
  0.0000000000000000  0.7500000000000000  0.2497247611577791   F   F   F
  0.3333333333333357  0.7500000000000000  0.2497247611577791   F   F   F
  0.6666666666666643  0.7500000000000000  0.2497247611577791   F   F   F
  0.1666666666666643  0.0582938416084460  0.2714038392382250   F   F   F
  0.5000000000000000  0.0582938416084460  0.2714038392382250   F   F   F
  0.8333333333333357  0.0582938416084460  0.2714038392382250   F   F   F
  0.0000000000000000  0.7500000000000000  0.2930829173186780   F   F   F
  0.3333333333333357  0.7500000000000000  0.2930829173186780   F   F   F
  0.6666666666666643  0.7500000000000000  0.2930829173186780   F   F   F
  0.1666666666666643  0.4417061583915540  0.2714038392382250   F   F   F
  0.5000000000000000  0.4417061583915540  0.2714038392382250   F   F   F
  0.8333333333333357  0.4417061583915540  0.2714038392382250   F   F   F
  0.0000000000000000  0.2500000000000000  0.3062672276657423   F   F   F
  0.3333333333333357  0.2500000000000000  0.3062672276657423   F   F   F
  0.6666666666666643  0.2500000000000000  0.3062672276657423   F   F   F
  0.1666666666666643  0.5582938416084460  0.3279463057461882   F   F   F
  0.5000000000000000  0.5582938416084460  0.3279463057461882   F   F   F
  0.8333333333333357  0.5582938416084460  0.3279463057461882   F   F   F
  0.0000000000000000  0.2500000000000000  0.3496253838266412   F   F   F
  0.3333333333333357  0.2500000000000000  0.3496253838266412   F   F   F
  0.6666666666666643  0.2500000000000000  0.3496253838266412   F   F   F
  0.1666666666666643  0.9417061583915540  0.3279463057461882   F   F   F
  0.5000000000000000  0.9417061583915540  0.3279463057461882   F   F   F
  0.8333333333333357  0.9417061583915540  0.3279463057461882   F   F   F
  0.0000019923019742  0.7491790186487254  0.3626583019161810   T   T   T
  0.3333353256353101  0.7491790186487254  0.3626583019161810   T   T   T
  0.6666686589686384  0.7491790186487254  0.3626583019161810   T   T   T
  0.1666699023808860  0.0620469306675967  0.3843620743046669   T   T   T
  0.5000032357142219  0.0620469306675967  0.3843620743046669   T   T   T
  0.8333365690475576  0.0620469306675967  0.3843620743046669   T   T   T
  0.0000026397270312  0.7663285408755705  0.4058758208953597   T   T   T
  0.3333359730603670  0.7663285408755705  0.4058758208953597   T   T   T
  0.6666693063936955  0.7663285408755705  0.4058758208953597   T   T   T
  0.1666697881659934  0.4452183649368830  0.3850541121084153   T   T   T
  0.5000031214993288  0.4452183649368830  0.3850541121084153   T   T   T
  0.8333364548326645  0.4452183649368830  0.3850541121084153   T   T   T
  0.0000067641426503  0.2495525363552702  0.4197633141444057   T   T   T
  0.3333400974759862  0.2495525363552702  0.4197633141444057   T   T   T
  0.6666734308093150  0.2495525363552702  0.4197633141444057   T   T   T
  0.1666754791270310  0.5529394026530258  0.4433218495861945   T   T   T
  0.5000088124603665  0.5529394026530258  0.4433218495861945   T   T   T
  0.8333421457937022  0.5529394026530258  0.4433218495861945   T   T   T
  0.0000063770291110  0.2459814764754582  0.4651308403365687   T   T   T
  0.3333397103624468  0.2459814764754582  0.4651308403365687   T   T   T
  0.6666730436957754  0.2459814764754582  0.4651308403365687   T   T   T
  0.1666757613967720  0.9341986549166169  0.4439502361362488   T   T   T
  0.5000090947301076  0.9341986549166169  0.4439502361362488   T   T   T
  0.8333424280634434  0.9341986549166169  0.4439502361362488   T   T   T
 
  0.00000000E+00  0.00000000E+00  0.00000000E+00
  0.00000000E+00  0.00000000E+00  0.00000000E+00
  0.00000000E+00  0.00000000E+00  0.00000000E+00
  0.00000000E+00  0.00000000E+00  0.00000000E+00
  0.00000000E+00  0.00000000E+00  0.00000000E+00
  0.00000000E+00  0.00000000E+00  0.00000000E+00
  0.00000000E+00  0.00000000E+00  0.00000000E+00
  0.00000000E+00  0.00000000E+00  0.00000000E+00
  0.00000000E+00  0.00000000E+00  0.00000000E+00
  0.00000000E+00  0.00000000E+00  0.00000000E+00
  0.00000000E+00  0.00000000E+00  0.00000000E+00
  0.00000000E+00  0.00000000E+00  0.00000000E+00
  0.00000000E+00  0.00000000E+00  0.00000000E+00
  0.00000000E+00  0.00000000E+00  0.00000000E+00
  0.00000000E+00  0.00000000E+00  0.00000000E+00
  0.00000000E+00  0.00000000E+00  0.00000000E+00
  0.00000000E+00  0.00000000E+00  0.00000000E+00
  0.00000000E+00  0.00000000E+00  0.00000000E+00
  0.00000000E+00  0.00000000E+00  0.00000000E+00
  0.00000000E+00  0.00000000E+00  0.00000000E+00
  0.00000000E+00  0.00000000E+00  0.00000000E+00
  0.00000000E+00  0.00000000E+00  0.00000000E+00
  0.00000000E+00  0.00000000E+00  0.00000000E+00
  0.00000000E+00  0.00000000E+00  0.00000000E+00
  0.00000000E+00  0.00000000E+00  0.00000000E+00
  0.00000000E+00  0.00000000E+00  0.00000000E+00
  0.00000000E+00  0.00000000E+00  0.00000000E+00
  0.00000000E+00  0.00000000E+00  0.00000000E+00
  0.00000000E+00  0.00000000E+00  0.00000000E+00
  0.00000000E+00  0.00000000E+00  0.00000000E+00
  0.00000000E+00  0.00000000E+00  0.00000000E+00
  0.00000000E+00  0.00000000E+00  0.00000000E+00
  0.00000000E+00  0.00000000E+00  0.00000000E+00
  0.00000000E+00  0.00000000E+00  0.00000000E+00
  0.00000000E+00  0.00000000E+00  0.00000000E+00
  0.00000000E+00  0.00000000E+00  0.00000000E+00
  0.00000000E+00  0.00000000E+00  0.00000000E+00
  0.00000000E+00  0.00000000E+00  0.00000000E+00
  0.00000000E+00  0.00000000E+00  0.00000000E+00
  0.00000000E+00  0.00000000E+00  0.00000000E+00
  0.00000000E+00  0.00000000E+00  0.00000000E+00
  0.00000000E+00  0.00000000E+00  0.00000000E+00
  0.00000000E+00  0.00000000E+00  0.00000000E+00
  0.00000000E+00  0.00000000E+00  0.00000000E+00
  0.00000000E+00  0.00000000E+00  0.00000000E+00
  0.00000000E+00  0.00000000E+00  0.00000000E+00
  0.00000000E+00  0.00000000E+00  0.00000000E+00
  0.00000000E+00  0.00000000E+00  0.00000000E+00
  0.00000000E+00  0.00000000E+00  0.00000000E+00
  0.00000000E+00  0.00000000E+00  0.00000000E+00
  0.00000000E+00  0.00000000E+00  0.00000000E+00
  0.00000000E+00  0.00000000E+00  0.00000000E+00
  0.00000000E+00  0.00000000E+00  0.00000000E+00
  0.00000000E+00  0.00000000E+00  0.00000000E+00
  0.00000000E+00  0.00000000E+00  0.00000000E+00
  0.00000000E+00  0.00000000E+00  0.00000000E+00
  0.00000000E+00  0.00000000E+00  0.00000000E+00
  0.00000000E+00  0.00000000E+00  0.00000000E+00
  0.00000000E+00  0.00000000E+00  0.00000000E+00
  0.00000000E+00  0.00000000E+00  0.00000000E+00
  0.00000000E+00  0.00000000E+00  0.00000000E+00
  0.00000000E+00  0.00000000E+00  0.00000000E+00
  0.00000000E+00  0.00000000E+00  0.00000000E+00
  0.00000000E+00  0.00000000E+00  0.00000000E+00
  0.00000000E+00  0.00000000E+00  0.00000000E+00
  0.00000000E+00  0.00000000E+00  0.00000000E+00
  0.00000000E+00  0.00000000E+00  0.00000000E+00
  0.00000000E+00  0.00000000E+00  0.00000000E+00
  0.00000000E+00  0.00000000E+00  0.00000000E+00
  0.00000000E+00  0.00000000E+00  0.00000000E+00
  0.00000000E+00  0.00000000E+00  0.00000000E+00
  0.00000000E+00  0.00000000E+00  0.00000000E+00
  0.00000000E+00  0.00000000E+00  0.00000000E+00
  0.00000000E+00  0.00000000E+00  0.00000000E+00
  0.00000000E+00  0.00000000E+00  0.00000000E+00
  0.00000000E+00  0.00000000E+00  0.00000000E+00
  0.00000000E+00  0.00000000E+00  0.00000000E+00
  0.00000000E+00  0.00000000E+00  0.00000000E+00
  0.00000000E+00  0.00000000E+00  0.00000000E+00
  0.00000000E+00  0.00000000E+00  0.00000000E+00
  0.00000000E+00  0.00000000E+00  0.00000000E+00
  0.00000000E+00  0.00000000E+00  0.00000000E+00
  0.00000000E+00  0.00000000E+00  0.00000000E+00
  0.00000000E+00  0.00000000E+00  0.00000000E+00
  0.00000000E+00  0.00000000E+00  0.00000000E+00
  0.00000000E+00  0.00000000E+00  0.00000000E+00
  0.00000000E+00  0.00000000E+00  0.00000000E+00
  0.00000000E+00  0.00000000E+00  0.00000000E+00
  0.00000000E+00  0.00000000E+00  0.00000000E+00
  0.00000000E+00  0.00000000E+00  0.00000000E+00
  0.00000000E+00  0.00000000E+00  0.00000000E+00
  0.00000000E+00  0.00000000E+00  0.00000000E+00
  0.00000000E+00  0.00000000E+00  0.00000000E+00
  0.00000000E+00  0.00000000E+00  0.00000000E+00
  0.00000000E+00  0.00000000E+00  0.00000000E+00
  0.00000000E+00  0.00000000E+00  0.00000000E+00
  0.00000000E+00  0.00000000E+00  0.00000000E+00
  0.00000000E+00  0.00000000E+00  0.00000000E+00
  0.00000000E+00  0.00000000E+00  0.00000000E+00
  0.00000000E+00  0.00000000E+00  0.00000000E+00
  0.00000000E+00  0.00000000E+00  0.00000000E+00
  0.00000000E+00  0.00000000E+00  0.00000000E+00
  0.00000000E+00  0.00000000E+00  0.00000000E+00
  0.00000000E+00  0.00000000E+00  0.00000000E+00
  0.00000000E+00  0.00000000E+00  0.00000000E+00
  0.00000000E+00  0.00000000E+00  0.00000000E+00
  0.00000000E+00  0.00000000E+00  0.00000000E+00
  0.00000000E+00  0.00000000E+00  0.00000000E+00
  0.00000000E+00  0.00000000E+00  0.00000000E+00
  0.00000000E+00  0.00000000E+00  0.00000000E+00
  0.00000000E+00  0.00000000E+00  0.00000000E+00
  0.00000000E+00  0.00000000E+00  0.00000000E+00
  0.00000000E+00  0.00000000E+00  0.00000000E+00
  0.00000000E+00  0.00000000E+00  0.00000000E+00
